34

O    -0.5771324635   -1.4609121084   -0.4676693678
S    -1.0639997721   -0.4456247687    0.3923544288
C    -2.0413715839    0.4760170281   -0.5547527075
C    -1.5043811798    0.5622815490   -1.9878991842
C    -2.3184187412    1.9187948704   -0.1681472510
C    -3.4077839851   -0.1708358377   -0.6743143201
N    -0.9201117158    0.4514972568    1.6208961010
I     0.5120406151   -0.0676093474    1.1236525774
C     2.3547081947    0.0448489450    0.2893895507
C     3.2326664925   -1.0449178219    0.3258496523
F     2.8393406868   -2.1786196232    0.9251301289
C     4.4948954582   -0.9704823494   -0.2446495146
F     5.2899045944   -2.0587549210   -0.1731270552
C     4.9279341698    0.1805391014   -0.8675563335
F     6.1730122566    0.1933311820   -1.4072972536
C     4.0763859749    1.2642565966   -0.9130663276
F     4.5356931686    2.3780469894   -1.5331166983
C     2.8174295425    1.1904904842   -0.3442266881
F     2.0409784317    2.2910292149   -0.4283736944
N    -2.0866322517   -1.5949472189    1.3798388243
C    -1.4154973030   -2.2752106190    2.4272341728
H    -0.5013022423    1.0231974125   -1.9648311138
H    -2.1922981739    1.2687544823   -2.5286860466
H    -1.5598533154   -0.4165937006   -2.4581587315
H    -3.1087589264    1.9100992680    0.6136167645
H    -2.6202654839    2.5347511768   -1.0159693956
H    -1.4143733978    2.3672289848    0.2733245194
H    -3.3140249252   -1.2896019220   -0.6411292553
H    -3.9676241875    0.0934982970    0.2551873326
H    -3.8763985634    0.1666094959   -1.6020039320
H    -1.6672891378    0.9640307426    2.0756540298
H    -1.3218293190   -3.3616769314    2.2764871120
H    -0.4183494449   -1.8027029037    2.6298751831
H    -1.9972943068   -2.1408131123    3.3664844036
34

O    -0.1784364879   -0.7214307785   -1.2010996342
S    -0.8013377190   -0.3804493546    0.0367970988
C    -2.1127123833    0.6276311278   -0.4278549552
C    -2.5006968975    1.7110210657    0.5325999260
C    -3.3350045681   -0.1707890630   -0.7313290834
C    -1.7701286077    1.3802286386   -1.7248079777
N    -0.6302670240    0.0444055647    1.5125254393
I     0.6990347505    0.4473790526    0.6952952743
C     2.6633281708    0.1611992866    0.2538895309
C     3.5944371223   -0.0810135305    1.2697234154
F     3.2155284882   -0.1310270429    2.5647647381
C     4.9315443039   -0.2738743722    0.9466733932
F     5.8620505333   -0.5102897286    1.8969323635
C     5.3567533493   -0.2292158902   -0.3747580349
F     6.6544184685   -0.4138384163   -0.7175927162
C     4.4526896477    0.0077234455   -1.3813493252
F     4.8013834953    0.0638465360   -2.6892485619
C     3.1304042339    0.1982602030   -1.0597263575
F     2.2198991776    0.4350632429   -2.0525548458
N    -1.2670305967   -1.9242938757    0.4788690507
C    -2.2672617435   -2.3281061649    1.3819508553
H    -3.0780832767    1.3599110842    1.4089189768
H    -3.1120676994    2.4496548176   -0.0115980608
H    -1.5608842373    2.2403306961    0.8467152715
H    -3.0963804722   -1.1943860054   -1.1196477413
H    -3.9305837154    0.3049630821   -1.5400553942
H    -4.0456790924   -0.2089980394    0.1376283020
H    -0.6688234806    1.5149344206   -1.7362687588
H    -1.9925354719    0.6683920622   -2.5722038746
H    -2.3121206760    2.3240444660   -1.8032339811
H    -1.4124017954    0.1657756120    2.1484735012
H    -3.2943301201   -2.3197555542    1.0174587965
H    -2.0553553104   -3.4060134888    1.6368376017
H    -2.1593501568   -1.8112828732    2.3772759438
34

O    -0.2925140560    0.5446860790    1.2753969431
S    -0.7907442451   -0.3089046478    0.2656565607
C    -2.3199403286    0.5062068105   -0.0453391448
C    -2.0643439293    1.8508574963   -0.6595712900
C    -2.9841234684    0.7202540040    1.3050655127
C    -3.2566468716   -0.2814865112   -0.8996112347
N    -0.5955759883   -0.7348988652   -1.2628271580
I     0.6036534905    0.3005039394   -0.9345672131
C     2.5782945156    0.4220634699   -0.3564534783
C     3.4063823223    1.3692982197   -0.9564386010
F     2.8819105625    2.1897368431   -1.9114854336
C     4.7331628799    1.4721891880   -0.5879415274
F     5.4994611740    2.4053092003   -1.1963391304
C     5.2190184593    0.6179793477    0.3853085041
F     6.5189194679    0.7067435980    0.7576540709
C     4.4119811058   -0.3265483975    0.9901332259
F     4.9143166542   -1.1570645571    1.9469190836
C     3.0855419636   -0.4181587398    0.6111543179
F     2.2921166420   -1.3500691652    1.2088805437
N    -0.8287217617   -1.7306401730    0.8688595295
C    -1.3477565050   -3.0068755150    0.5010519028
H    -1.3143385649    2.3890757561   -0.0269844402
H    -3.0236594677    2.4079091549   -0.6836533546
H    -1.6786184311    1.7441473007   -1.7036291361
H    -3.3520021439    1.7645002604    1.3875436783
H    -2.2659170628    0.5740990043    2.1393523216
H    -3.8149189949   -0.0016743963    1.4659318924
H    -3.2833590508   -1.3475229740   -0.6699516773
H    -4.2820296288    0.1200354993   -0.7076194286
H    -3.0378990173   -0.0550119355   -1.9741548300
H    -1.2809078693   -1.3263288736   -1.7355912924
H    -2.2459428310   -3.2465183735    1.1027430296
H    -1.5593264103   -3.0521612167   -0.5692247152
H    -0.5254731178   -3.7617309093    0.6697319150
34

O    -0.3668566644   -1.4140148163   -1.6527318954
S    -0.8424896002    0.1077084318   -0.4934550226
C    -2.4337277412    0.2610070705   -0.7107411623
C    -2.9983165264   -0.8263439536   -1.6373512745
C    -2.9674050808    1.5570307970   -1.3129467964
C    -3.2305498123    0.1005861312    0.5887789726
N    -0.3533258736    0.9573690295   -1.6809184551
I     0.4722024798    1.1742377281   -0.2931944132
C     2.3848292828    0.5118802190    0.2939183116
C     3.0653009415    1.1414545774    1.3252983093
F     2.5080437660    2.1856575012    1.9634234905
C     4.3273081779    0.7022196651    1.7106173038
F     5.0182466507    1.3038413525    2.7220876217
C     4.8802218437   -0.3778015971    1.0356875658
F     6.1202816963   -0.8029392958    1.4204645157
C     4.2119336128   -1.0096267462    0.0099153770
F     4.7567238808   -2.0743591785   -0.6556301713
C     2.9451630116   -0.5712848902   -0.3792832494
F     2.3016881943   -1.2053459883   -1.3914129734
N    -0.6603572965   -0.7394855022    0.6213743687
C    -0.0005908080   -1.0386456251    1.8357239962
H    -2.6573383808   -1.8244583607   -1.2810506821
H    -2.5805068016   -0.6923007369   -2.6676180363
H    -4.1078214645   -0.7525300980   -1.7065844536
H    -2.7675347328    1.5660287142   -2.3957300186
H    -2.4258592129    2.3941867352   -0.8263137341
H    -4.0681319237    1.6128051281   -1.1772708893
H    -2.6548292637   -0.5199391842    1.3269913197
H    -3.4010248184    1.0863658190    1.0688159466
H    -4.2267026901   -0.3414212763    0.3949463665
H    -0.7059083581    1.0351134539   -2.6346359253
H    -0.1811836809   -2.1155047417    2.0865433216
H     1.0943180323   -0.9391844869    1.8227602243
H    -0.4558007419   -0.4523063302    2.6695222855
34

O    -0.4301047921   -1.0983384848   -0.9914368987
S    -0.9782212377   -0.2264095247   -0.0421192870
C    -2.5097265244    0.1109490618   -0.5563580990
C    -3.5517368317   -0.5860236883    0.3315985501
C    -2.8344280720   -0.3756827116   -1.9557821751
C    -2.9578576088    1.5709095001   -0.5670456886
N    -0.7644270658    1.0138734579    0.9092743993
I     0.3972235024    1.0051131248   -0.2156408429
C     2.3905017376    0.5437163711   -0.5286918879
C     3.3489809036    0.9853467345    0.3673338294
F     2.9582638741    1.7199087143    1.4447102547
C     4.6777343750    0.7060379386    0.2032319456
F     5.6218113899    1.1378073692    1.0807019472
C     5.0691695213   -0.0392050110   -0.8908122778
F     6.3768877983   -0.3264454007   -1.0717658997
C     4.1373662949   -0.4886827171   -1.7936649323
F     4.5010523796   -1.2172569036   -2.8671965599
C     2.7746064663   -0.2121802121   -1.6410796642
F     1.8517365456   -0.6514241099   -2.5259552002
N    -0.9341217279   -1.3148449659    1.3067265749
C     0.1877626777   -1.4035904408    2.1582534313
H    -3.4515931606   -0.3298878074    1.3886501789
H    -3.4288933277   -1.6941319704    0.1926347613
H    -4.5341095924   -0.2718824446   -0.0911125392
H    -2.4811551571    0.4352914393   -2.6537611485
H    -3.9034478664   -0.5397320986   -2.0960059166
H    -2.1964392662   -1.2451531887   -2.2048494816
H    -2.9360897541    2.0279026031    0.4336172044
H    -2.3206255436    2.0947871208   -1.3003791571
H    -4.0252041817    1.5275802612   -0.9215412736
H    -1.4387158155    1.2906430960    1.6238212585
H    -0.0404976532   -0.7472622395    3.0399219990
H     0.3036234975   -2.4121668339    2.5691421032
H     1.1206747293   -0.9895661473    1.7306952477
34

O    -0.2826037407    0.7642557025    0.9289208055
S    -0.8143218160   -0.2900965810   -0.3864834309
C    -2.2481851578   -0.5197311044    0.4642545879
C    -2.1151242256   -1.3044220209    1.7567018270
C    -3.2162156105   -1.3174375296   -0.4198427498
C    -2.9752995968    0.7715554237    0.8054106832
N    -0.5268557072   -1.6413815022   -0.5159435272
I     0.5767583251   -0.5349889398   -1.0068463087
C     2.5706894398   -0.1342633516   -0.4616886377
C     3.0133988857   -0.2495318502    0.8487487435
F     2.1251394749   -0.6336432695    1.8033589125
C     4.3310451508    0.0248744600    1.1529976130
F     4.7755289078   -0.0866131261    2.4440562725
C     5.1903414726    0.4139050245    0.1279515326
F     6.4918613434    0.6874232292    0.4141584933
C     4.7443084717    0.5270138383   -1.1747119427
F     5.5894408226    0.9104108810   -2.1873705387
C     3.4302690029    0.2541621625   -1.4827829599
F     2.9802932739    0.3644095361   -2.7744309902
N    -1.5560526848    0.7538215518   -1.5305905342
C    -1.3374524117    2.1833541393   -1.3949774504
H    -2.4159736633   -2.3774621487    1.6048905849
H    -2.7734160423   -0.9348767400    2.5555398464
H    -1.0794396400   -1.2809743881    2.1282334328
H    -2.6403913498   -1.8959017992   -1.1743294001
H    -3.8693883419   -0.6405090690   -0.9983966947
H    -3.8553583622   -1.9623787403    0.2097151428
H    -3.9378213882    0.4725785553    1.3000869751
H    -2.3751859665    1.3653752804    1.5290277004
H    -3.2490320206    1.3344585896   -0.0886141360
H    -0.7764961720   -2.6373648643   -0.3283768594
H    -0.5017313957    2.4369373322   -2.0609104633
H    -2.2274146080    2.7506823540   -1.7348800898
H    -1.0453152657    2.4263586998   -0.3528768420
34

O    -1.1458339691   -0.0446089394    2.5912156105
S    -0.9412705898   -0.0560592040    0.7210077643
C    -2.5062148571   -0.0096983109    0.1183434576
C    -3.5202023983   -0.5352916718    1.1442241669
C    -2.6424326897   -0.9950475097   -1.0494936705
C    -3.0248882771    1.3077211380   -0.3723737895
N    -0.7914999127   -1.5566344261    0.8505465388
I     0.4087044895   -0.8117979169    0.0731889606
C     2.4213471413   -0.6338744760    0.0851576999
C     3.2161595821   -1.4034838676    0.9442501068
F     2.6371116638   -2.2963006496    1.7969399691
C     4.5841526985   -1.2984312773    0.9685667157
F     5.3255352974   -2.0717184544    1.8263080120
C     5.1864562035   -0.3944545984    0.1067557260
F     6.5461153984   -0.3196466863    0.1610457301
C     4.4619722366    0.3824875355   -0.7530547380
F     5.1059503555    1.2373555899   -1.5608783960
C     3.0890605450    0.2503427267   -0.7502795458
F     2.4104220867    1.0533839464   -1.6322513819
N    -0.5273783803    1.2986936569    0.7406718731
C    -0.1335173398    2.3160238266   -0.1578513533
H    -4.5410399437   -0.3810982108    0.7295905948
H    -3.4528336525   -0.0105618350    2.1091926098
H    -3.4410359859   -1.6498210430    1.2476686239
H    -3.4026894569   -0.6847245693   -1.7683138847
H    -2.8078896999   -2.0343739986   -0.6402831078
H    -1.6655935049   -1.0566494465   -1.5891953707
H    -2.5115840435    1.5363812447   -1.3428000212
H    -4.1073546410    1.1912858486   -0.6029293537
H    -2.8241329193    2.1059575081    0.3571904302
H    -1.4708007574   -2.2664132118    1.1721024513
H     0.9341089725    2.5637931824    0.0834693164
H    -0.1523532420    2.0456371307   -1.2271904945
H    -0.7165509462    3.2216272354    0.0851858407
34

O    -0.2396067381    0.1377914548   -1.6791844368
S    -1.0162831545    0.5866179466   -0.5930820107
C    -1.8324946165   -0.8095654845   -0.0953463316
C    -1.4559901953   -1.3696219921    1.2359123230
C    -1.7590541840   -1.9973849058   -1.0571020842
C    -3.3276886940   -0.4623210728   -0.0369916596
N    -1.0435343981    1.2756198645    0.8118751049
I     0.4798733592    1.2456345558    0.3029994965
C     2.3367052078    0.3946918249    0.3839976788
C     3.4699144363    1.2057632208    0.5227848887
F     3.3468513489    2.5442306995    0.6035186052
C     4.7407684326    0.6774447560    0.5818825960
F     5.8494901657    1.4574604034    0.7167083621
C     4.9457287788   -0.6808719635    0.5059337616
F     6.1727499962   -1.2574801445    0.5585344434
C     3.8551290035   -1.5011291504    0.3696958423
F     4.0273408890   -2.8517036438    0.2918718159
C     2.5873823166   -0.9608561397    0.3116280437
F     1.5548787117   -1.8037949800    0.1781388521
N    -2.0000669956    1.7139252424   -1.3653730154
C    -2.0311460495    3.1095988750   -1.1936676502
H    -2.3438873291   -1.5785106421    1.8680158854
H    -0.8218342662   -0.6641699672    1.7972161770
H    -0.8959426880   -2.3330357075    1.1788736582
H    -2.2181072235   -2.8573257923   -0.5254353881
H    -0.7008786798   -2.2960712910   -1.2330623865
H    -2.3058362007   -1.8070114851   -1.9797199965
H    -3.9710617065   -1.2634047270   -0.3959660530
H    -3.6396780014   -0.2808799446    1.0324039459
H    -3.5661637783    0.4681732059   -0.5660991073
H    -1.9063458443    1.4999984503    1.3029385805
H    -2.8374414444    3.3640508652   -0.4486176968
H    -1.0941065550    3.5090575218   -0.7846013308
H    -2.3596642017    3.5850799084   -2.1396250725
34

O    -2.3636519909   -1.7279353142   -0.2171400934
S    -1.1514723301   -0.6585218906   -0.4062142372
C    -2.2471170425    0.6938893795   -0.2484259605
C    -1.6100478172    2.0349102020   -0.2632469833
C    -2.9673483372    0.5449305773    1.0978093147
C    -3.2761254311    0.5657952428   -1.3524208069
N    -0.7416052222   -1.2664313316   -1.6585917473
I     0.1150817871   -0.0193588622   -1.0394341946
C     2.1096930504    0.1615675837   -0.3900098801
C     3.1076805592    0.0321742408   -1.3495252132
F     2.8141357899   -0.1988601089   -2.6389894485
C     4.4526395798    0.1385865957   -1.0025911331
F     5.4352183342    0.0138043510   -1.9319833517
C     4.7828941345    0.3749866486    0.3107328713
F     6.0890269279    0.4809444547    0.6630459428
C     3.7907474041    0.4997999370    1.2422815561
F     4.1520314217    0.7320150137    2.5247750282
C     2.4482498169    0.3983923197    0.9240692854
F     1.4801843166    0.5219084620    1.8430854082
N    -0.5388127565   -1.0523195267    1.1650774479
C    -0.2026949525   -2.3654718399    1.5701565742
H    -1.6338170767    2.4289798737   -1.3004273176
H    -0.5687757134    2.0091998577    0.0890445188
H    -2.2293634415    2.7413835526    0.3364699483
H    -3.5187358856    1.4605873823    1.3211938143
H    -2.1458921432    0.4311458468    1.8450472355
H    -3.5907661915   -0.3790228665    1.0722967386
H    -4.3132576942    0.7377992868   -0.9409134984
H    -3.0538828373    1.3044363260   -2.1538517475
H    -3.2659895420   -0.4569056928   -1.8057219982
H    -0.8402557969   -2.0206947327   -2.3733801842
H    -0.7987906933   -2.5582439899    2.5094449520
H    -0.5823139548   -3.0799245834    0.8033515215
H     0.8631332517   -2.5235464573    1.7549855709
34

O    -2.1502063274   -1.1617869139    1.7738190889
S    -0.9894235730   -0.0316497944    0.4772619307
C    -2.2279717922    0.8619346619   -0.2057952583
C    -1.8699986935    2.3394148350   -0.2526959479
C    -3.5591714382    0.7895977497    0.5546804070
C    -2.5622255802    0.4665274918   -1.6466455460
N    -0.8405029178    0.7691003084    1.7779282331
I     0.4853947759    0.1702759266    1.0774421692
C     2.4639713764   -0.1478868723    0.7679883242
C     3.4154019356    0.8028349280    1.1555900574
F     2.9943003654    1.9596177340    1.7507729530
C     4.7588796616    0.6234985590    0.9632630348
F     5.6536259651    1.5697070360    1.3531028032
C     5.2386932373   -0.5236460567    0.3681595325
F     6.5720343590   -0.6804116368    0.1875965893
C     4.3302254677   -1.4818991423   -0.0264639556
F     4.7862324715   -2.6157412529   -0.6132236719
C     2.9773616791   -1.2863968611    0.1744539589
F     2.1483805180   -2.2717788219   -0.2395798117
N    -0.9323332906   -1.2201287746   -0.2868925631
C    -1.0653864145   -2.6134984493   -0.4592506289
H    -2.1706399918    2.8004407883    0.7187911272
H    -2.4443314075    2.8691298962   -1.0324728489
H    -0.7697236538    2.4992282391   -0.3436152041
H    -3.3960125446    1.1792744398    1.5777980089
H    -3.8433895111   -0.2674234509    0.6217275858
H    -4.2925724983    1.3418529034   -0.0430442095
H    -3.5936729908    0.1158004254   -1.7693555355
H    -2.4040768147    1.2801691294   -2.3641438484
H    -1.8868001699   -0.3655276000   -1.9859253168
H    -1.4624685049    1.3472514153    2.3379395008
H    -0.2849577963   -3.0070829391   -1.1499397755
H    -1.0007640123   -3.2061102390    0.5011437535
H    -2.0778720379   -2.9046878815   -0.8676581383
34

O    -2.1990575790   -1.6732939482   -1.9188917875
S    -1.4415906668   -0.1192653403   -0.9964352846
C    -1.3940020800   -0.8718858361    0.3417564929
C    -1.2706289291    0.0457229428    1.5889087915
C    -0.2404915690   -1.8349287510    0.6347756982
C    -2.5707743168   -1.7578462362    0.8293499947
N    -1.1432089806    0.3594945669   -2.3101398945
I     0.0934183300    0.2215017974   -1.3216277361
C     1.9663287401    0.3874923289   -0.5530964732
C     2.3310084343    1.4494385719    0.2654667795
F     1.4581234455    2.4387927055    0.6003612280
C     3.6081016064    1.5681785345    0.7925050259
F     3.9751455784    2.6020131111    1.5936304331
C     4.5758876801    0.6250715256    0.5205297470
F     5.8342013359    0.6978709102    1.0110847950
C     4.2363100052   -0.4356082678   -0.2883897126
F     5.1658730507   -1.3599438667   -0.5616419911
C     2.9752416611   -0.5489809513   -0.8062859178
F     2.7188556194   -1.6362648010   -1.6031999588
N    -2.8751325607    0.7765659690   -0.7908897400
C    -2.9957344532    2.1787962914   -1.0418065786
H    -2.2592966557    0.5468710065    1.7373274565
H    -0.4493130445    0.7526778579    1.4944026470
H    -1.1509131193   -0.5913915038    2.5019900799
H    -0.1079278588   -2.5406751633   -0.2177341878
H    -0.3756719530   -2.3636238575    1.6109104156
H     0.6519321203   -1.1891839504    0.8003144264
H    -2.5225012302   -2.7110390663    0.2253348678
H    -2.3972723484   -2.0811564922    1.8603928089
H    -3.5087862015   -1.2498044968    0.6195496321
H    -1.6582857370    0.6083598137   -3.1465175152
H    -2.7597346306    2.8020188808   -0.1563919187
H    -2.2758541107    2.4838626385   -1.8471915722
H    -3.9942495823    2.4201631546   -1.4683508873
34

O    -0.1252701879   -1.2734185457    0.8349675536
S    -0.7498881221   -0.1252171695    0.2841449976
C    -2.2779247761   -0.7066550851   -0.1046917588
C    -3.3679547310    0.3714837432   -0.1463978738
C    -2.7869729996   -1.6807370186    0.9402309060
C    -2.3286292553   -1.3949216604   -1.4347690344
N    -0.7140851021    0.7721964717   -1.0670746565
I     0.5652461052   -0.2237212062   -1.2099082470
C     2.5873117447   -0.1238800585   -0.6402056217
C     3.1652610302    1.1370546818   -0.4597372711
F     2.4149813652    2.2666223049   -0.6544324160
C     4.5003037453    1.2418133020   -0.0830322430
F     5.0474119186    2.4728283882    0.0883488059
C     5.2510442734    0.0803126022    0.1113452315
F     6.5468831062    0.1485312134    0.4765152335
C     4.6627826691   -1.1614105701   -0.0717471018
F     5.3507823944   -2.3096854687    0.1051681116
C     3.3376483917   -1.2680461407   -0.4456958771
F     2.7811360359   -2.4782161713   -0.6194276214
N    -0.5675367713    1.0443710089    1.3291018009
C    -1.2041442394    2.3196258545    1.4848345518
H    -3.3370456696    0.8588007689    0.8415729403
H    -4.3437600136   -0.1775206029   -0.2334813029
H    -3.2989606857    1.0311082602   -1.0112102032
H    -3.6793618202   -2.2342815399    0.5829375386
H    -2.9925632477   -1.0882906914    1.8571383953
H    -1.9332208633   -2.3499193192    1.1945425272
H    -2.2033088207   -2.5109336376   -1.3318042755
H    -3.3421082497   -1.2930517197   -1.9162156582
H    -1.6047174931   -1.0113817453   -2.1711418629
H    -1.3230879307    1.5795354843   -1.1768934727
H    -1.8826136589    2.3593330383    2.3584620953
H    -0.3945716321    3.0663874149    1.6959439516
H    -1.7530666590    2.6612834930    0.5926120877
34

O    -0.4763840139    0.0787605047    1.2312670946
S    -0.7908727527    0.4173867404    0.0219799206
C    -2.2449088097   -0.5400462151   -0.3424245119
C    -2.9427740574   -0.9800323844    0.9199046493
C    -1.7868243456   -1.7733050585   -1.0963082314
C    -3.1958858967    0.2921853662   -1.1549125910
N    -0.5315759778    0.6521412730   -1.5594964027
I     0.7306084037   -0.0228162576   -0.8299122453
C     2.6374886036   -0.2088242620   -0.1647018492
C     3.6299459934    0.7007603645   -0.5188459754
F     3.3895602226    1.7475346327   -1.3148345947
C     4.9399867058    0.5557518601   -0.0498735569
F     5.9126372337    1.4476516247   -0.3972926736
C     5.2934284210   -0.4910754859    0.7779135108
F     6.5456585884   -0.6693919301    1.2537907362
C     4.3127913475   -1.3955930471    1.1318498850
F     4.5823783875   -2.4505512714    1.9417557716
C     3.0131459236   -1.2590653896    0.6716997623
F     2.0726737976   -2.1622173786    1.0360072851
N    -1.2696298361    2.0709831715    0.1857038587
C    -1.8333230019    2.6114966869    1.3601385355
H    -3.0740423203   -0.1574268639    1.6485527754
H    -2.4654939175   -1.8118854761    1.4361526966
H    -3.9602205753   -1.2911677361    0.6021391153
H    -1.4583469629   -2.5633952618   -0.3724352121
H    -0.9093921781   -1.5205734968   -1.7473651171
H    -2.6197710037   -2.2023749352   -1.7175209522
H    -4.2224535942    0.2313670069   -0.7428289056
H    -2.9260492325    1.3768169880   -1.1444538832
H    -3.1944332123   -0.0268170703   -2.2107942104
H    -1.1459742785    1.0141936541   -2.2696776390
H    -1.7406371832    1.9583171606    2.2572219372
H    -1.3438503742    3.5796127319    1.6045804024
H    -2.9274597168    2.7915997505    1.1539279222
34

O    -0.3920762837    1.4364976883   -0.7545094490
S    -0.9522699118    0.1238347515   -0.8409519196
C    -1.7544112206    0.1196100414    0.7582846880
C    -0.7091973424    0.0771866739    1.8146214485
C    -2.7919907570   -0.9733334184    0.8550238013
C    -2.5815429688    1.4107189178    0.8575065136
N    -0.7592809796   -1.3932735920   -0.8781336546
I     0.6610605121   -0.6720425487   -1.0356268883
C     2.5042061806   -0.1369695812   -0.3875251710
C     3.6272130013   -0.8947625756   -0.6618184447
F     3.4557607174   -2.0270941257   -1.3905054331
C     4.8868503571   -0.5427656174   -0.2273468673
F     5.9366035461   -1.3669761419   -0.5552799106
C     5.0861616135    0.5944214463    0.5091431737
F     6.3439097404    0.8968253136    0.9126681089
C     3.9888830185    1.3738300800    0.8012194633
F     4.1900234222    2.5086817741    1.5365837812
C     2.7260346413    1.0196666718    0.3648529351
F     1.7123280764    1.8478590250    0.7014674544
N    -2.0341608524    0.2718331516   -2.0489006042
C    -2.9500319958   -0.6180672050   -2.6376357079
H    -0.6222217083    1.0899993181    2.2605836391
H     0.2385082394   -0.2975235581    1.4207886457
H    -1.0893886089   -0.5687276721    2.6475749016
H    -3.3067047596   -1.0747296810   -0.1094829738
H    -3.4821882248   -0.6901535392    1.6612571478
H    -2.2534992695   -1.8983838558    1.1408838034
H    -1.9652675390    2.2989745140    0.9868221283
H    -3.2767224312    1.4361342192   -0.0088973157
H    -3.2546265125    1.2574952841    1.7399637699
H    -1.5244259834   -2.0614800453   -0.8236426711
H    -2.7144680023   -1.6849405766   -2.5363616943
H    -4.0149264336   -0.4498459399   -2.3247110844
H    -2.9281408787   -0.4124991298   -3.7479155064
34

O    -0.1951850057    0.5160529613    1.3653392792
S    -0.7331578135   -0.2628737688    0.2558814287
C    -2.2871131897    0.3555177450    0.1844625026
C    -2.1842322350    1.8154759407   -0.2756833434
C    -2.8854045868    0.4522863030    1.5800642967
C    -3.3047773838   -0.3114586473   -0.6681188345
N    -0.5804263949   -0.4221713841   -1.3035799265
I     0.5736132264    0.6409767866   -0.9110091329
C     2.5895071030    0.6137462854   -0.4000675082
C     3.4278638363    1.6672105789   -0.7220672369
F     2.9543371201    2.7520532608   -1.3834140301
C     4.7549920082    1.5707308054   -0.3462663293
F     5.6344785690    2.5750107765   -0.6334315538
C     5.2597136497    0.4732340276    0.3291378915
F     6.5798811913    0.4343211949    0.6743143797
C     4.3972215652   -0.5663936138    0.6382365227
F     4.9019246101   -1.6326193810    1.2979445457
C     3.0808975697   -0.4951918721    0.2777914107
F     2.2659094334   -1.5163741112    0.5893539190
N    -0.4593772292   -1.7572681904    0.6878953576
C    -1.3564286232   -2.8589477539    0.4489606321
H    -3.1919949055    2.1265594959   -0.5744844079
H    -1.5313218832    1.9058339596   -1.1677904129
H    -1.8561562300    2.4660890102    0.5699222088
H    -2.9070692062   -0.5249008536    2.1043345928
H    -3.9166848660    0.8645650148    1.5434612036
H    -2.2092890739    1.1031529903    2.2037503719
H    -3.6106386185    0.3270425498   -1.5492392778
H    -3.0436217785   -1.2937021255   -1.0794633627
H    -4.2964439392   -0.4860443771   -0.1555810273
H    -1.1551343203   -1.0821646452   -1.8222676516
H    -0.9534569979   -3.7674796581    0.9407473207
H    -2.3836915493   -2.6320757866    0.8074172139
H    -1.3787341118   -3.0501933098   -0.6338981390
34

O    -0.3114715219   -0.3073281944   -1.3300101757
S    -0.7731156945    0.3312145770   -0.0951494277
C    -2.3225374222   -0.3437134027    0.0211960953
C    -3.1546709538    0.0155410413    1.1984778643
C    -2.2167265415   -1.8597679138   -0.0565884151
C    -3.0996806622    0.0626243353   -1.2378118038
N    -0.5058125854    0.5214770436    1.3879950047
I     0.6013708711   -0.5362070203    0.8817608356
C     2.5623736382   -0.6775015593    0.2579677105
C     3.1117105484    0.3318482637   -0.5177617669
F     2.3573036194    1.4170837402   -0.8684117198
C     4.4185886383    0.2942265272   -0.9658642411
F     4.9057207108    1.3198800087   -1.7285959721
C     5.1903352737   -0.7951671481   -0.6190418601
F     6.4667344093   -0.8618780375   -1.0395209789
C     4.6725006104   -1.8200447559    0.1542583108
F     5.4563264847   -2.8579094410    0.4672182798
C     3.3533043861   -1.7599312067    0.5939042568
F     2.8882286549   -2.7689275742    1.3391559124
N    -0.6572169662    1.8819804192   -0.5541093946
C    -1.1282998323    3.0800080299    0.0254895277
H    -3.6536684036    0.9847780466    1.0115339756
H    -2.6612946987   -0.0592745394    2.1686906815
H    -3.9986815453   -0.7323381305    1.2394757271
H    -2.0105330944   -2.2219450474   -1.0829650164
H    -3.2486503124   -2.2530555725    0.1816703677
H    -1.5612951517   -2.2930598259    0.7068029046
H    -3.0691633224   -0.7219460011   -2.0149834156
H    -4.1528964043    0.2464819252   -0.9937387705
H    -2.6334588528    0.9647787213   -1.7062164545
H    -1.0245105028    1.1470702887    2.0054264069
H    -1.4269138575    2.9940078259    1.0866880417
H    -0.3268240988    3.8451848030   -0.0886359587
H    -2.0470755100    3.4318096638   -0.5092467666
34

O    -2.0435590744    1.8062291145   -1.2598509789
S    -0.9747163653    0.3127107024   -0.3827282190
C    -2.2617168427   -0.7073559761    0.0073939185
C    -3.5586876869   -0.3678340018   -0.7275900245
C    -2.6093740463   -0.7337235808    1.4828733206
C    -1.9293050766   -2.1476850510   -0.3756840527
N    -0.8731700778   -0.1595144272   -1.8727978468
I     0.4886966050    0.2149351090   -1.1098194122
C     2.4445602894    0.1486796141   -0.5977176428
C     3.4445660114   -0.1713520437   -1.5112024546
F     3.1394264698   -0.4558314979   -2.8019304276
C     4.7792448997   -0.2093703449   -1.1321690083
F     5.7386183739   -0.5279335380   -2.0558753014
C     5.1543359756    0.0670532584    0.1535988301
F     6.4430027008    0.0401572660    0.5600038767
C     4.1964330673    0.3827868402    1.0663176775
F     4.4931821823    0.6703913212    2.3666017056
C     2.8653106689    0.4252244532    0.7068703771
F     1.9091244936    0.7394921780    1.6143405437
N    -0.8095062375    1.1230989695    0.6940953135
C    -0.8030128479    2.4181928635    1.2631124258
H    -3.8258724213    0.6859695315   -0.5184546709
H    -4.3343253136   -1.0587348938   -0.3016328216
H    -3.4874846935   -0.5929918885   -1.8036879301
H    -1.7713218927   -1.1806828976    2.0533070564
H    -3.5172793865   -1.3231126070    1.6566808224
H    -2.7549109459    0.3121311367    1.8204554319
H    -0.8426645994   -2.3355796337   -0.4062641263
H    -2.3964326382   -2.8528089523    0.3303311765
H    -2.3293654919   -2.3874566555   -1.3994902372
H    -1.5376380682   -0.4516181350   -2.5814397335
H    -1.8542498350    2.7520711422    1.5019308329
H    -0.1961540878    2.3482716084    2.1896219254
H    -0.3857536316    3.2161910534    0.6195989251
34

O    -0.7235094905   -1.3952589035    0.6134750247
S    -1.2629961967   -0.5794576406   -0.4188340902
C    -1.5149146318    0.8881884813    0.3860427141
C    -2.4475471973    0.6028985381    1.5592290163
C    -2.1016795635    2.0211045742   -0.3732000887
C    -0.2012967914    1.3076339960    1.0195134878
N    -1.1787863970   -0.0398979522   -1.8601771593
I     0.1994379163   -0.8414114714   -1.5198380947
C     2.0929763317   -0.4018956721   -0.7887979150
C     2.5956840515   -1.1448405981    0.2775411904
F     1.8636392355   -2.1521668434    0.8446480632
C     3.8466956615   -0.9059076309    0.8127529025
F     4.3558964729   -1.6078783274    1.8415473700
C     4.6427402496    0.1058439612    0.2809815705
F     5.8637886047    0.3477787971    0.7945081592
C     4.1471228600    0.8431919813   -0.7752764225
F     4.9429450035    1.8244398832   -1.2763352394
C     2.9046530724    0.5960040092   -1.2967954874
F     2.4468271732    1.3324557543   -2.3285958767
N    -2.6732134819   -1.4402004480   -0.7201200724
C    -2.7905774117   -2.8434917927   -0.7629997134
H    -2.5399851799    1.4974617958    2.1907653809
H    -1.9957815409   -0.2080040872    2.1363246441
H    -3.4005050659    0.2517666519    1.1413179636
H    -2.3921074867    2.8039095402    0.3750224113
H    -3.0657608509    1.6838742495   -0.8198844194
H    -1.4990997314    2.4325947762   -1.1871610880
H     0.5232110620    1.6760605574    0.2842191756
H    -0.3831932843    2.0821228027    1.8143936396
H     0.2279860526    0.4116226137    1.5186920166
H    -1.8746776581    0.5866538882   -2.2721626759
H    -1.9410153627   -3.3297467232   -1.2979841232
H    -2.9845032692   -3.3279123306    0.2209438831
H    -3.6824524403   -3.0775361061   -1.3894777298
34

O    -2.3501541615   -1.2184938192   -1.7912701368
S    -1.1586307287   -0.2361005843   -0.8169929385
C    -1.9794911146    0.5279579163    0.3925737739
C    -1.1804730892    0.5157102346    1.6835914850
C    -3.2819054127   -0.1731941849    0.7063012123
C    -2.3741214275    1.9956495762    0.1778802574
N    -1.1871471405    0.7692097425   -1.9160486460
I     0.2987914085    0.1999639571   -1.6803765297
C     2.2218732834    0.1849569827   -1.0306539536
C     2.7020871639    0.9833608866   -0.0067864023
F     1.8668626547    1.8412691355    0.6255183816
C     4.0147924423    0.9541001916    0.4163002372
F     4.4827556610    1.7403090000    1.4228243828
C     4.9129004478    0.1086523011   -0.1808622032
F     6.2212681770    0.0221545435    0.1792280376
C     4.4804368019   -0.6939267516   -1.1926833391
F     5.3509554863   -1.5544866323   -1.8156228065
C     3.1691176891   -0.6646732092   -1.6152982712
F     2.8066232204   -1.5039898157   -2.6423525810
N    -0.6119815111   -1.4294967651   -0.1695188582
C    -1.1941971779   -2.5424802303    0.4767726660
H    -1.8496474028    0.4377226233    2.5659122467
H    -0.5775361061    1.4510217905    1.7036311626
H    -0.4762115479   -0.3187576532    1.6290811300
H    -3.3807117939   -1.1346681118    0.1527234763
H    -4.1852602959    0.4080498815    0.4210942686
H    -3.4221601486   -0.3896694183    1.7846673727
H    -3.2558214664    2.0255823135   -0.5001009703
H    -2.5180716515    2.5362329483    1.1178375483
H    -1.5325089693    2.4529683590   -0.3815401793
H    -1.9501302242    1.3960652351   -2.1678197384
H    -0.4035324752   -3.3209149837    0.5901725888
H    -1.7316617966   -2.3511292934    1.4018661976
H    -1.9271080494   -3.0189559460   -0.2377324700
34

O    -1.7625367641    0.0216369294    2.3322243690
S    -0.9152777195    0.1214283258    0.5284671783
C    -2.3331234455    0.5209981203   -0.3795432150
C    -3.3352687359    1.2821271420    0.4878012240
C    -3.0738470554   -0.6563921571   -0.9412071109
C    -1.9095959663    1.4556595087   -1.4662219286
N    -0.6378855705    1.5748064518    0.9980157614
I     0.6006577015    0.6558064222    0.5318893194
C     2.5300385952    0.1924929172    0.1231037006
C     2.8768441677   -0.9739907980   -0.5688403845
F     1.9249478579   -1.8424040079   -0.9934661984
C     4.1930055618   -1.2878113985   -0.8464357257
F     4.5390706062   -2.4072239399   -1.5114246607
C     5.2085380554   -0.4358413815   -0.4359304905
F     6.5179910660   -0.7106478214   -0.6907250285
C     4.8947749138    0.7271516919    0.2515588403
F     5.8694067001    1.5955511332    0.6745435596
C     3.5761513710    1.0290268660    0.5225119591
F     3.2669000626    2.1769645214    1.2010710239
N    -0.8592653871   -1.2406262159    0.4959738851
C    -0.9228657484   -2.4731819630    1.1740173101
H    -3.3032579422    2.3847329617    0.2800153494
H    -3.0833463669    1.1978628635    1.5726702213
H    -4.3575825691    0.9232441187    0.3767815530
H    -3.5111346245   -1.2420494556   -0.0923812538
H    -2.4607892036   -1.2892752886   -1.6039972305
H    -3.9375224113   -0.2477813810   -1.4936691523
H    -0.8088939786    1.5326496363   -1.5837794542
H    -2.2962899208    1.0913839340   -2.4601740837
H    -2.3092360497    2.4822130203   -1.3509743214
H    -1.2173848152    2.3806064129    1.2283555269
H    -1.5249558687   -3.1851134300    0.5419330001
H     0.0724497661   -2.9381852150    1.3213890791
H    -1.5107163191   -2.4158189297    2.1301438808
34

O    -0.1246035099   -0.1740624160    1.8082227707
S    -0.8633104563    0.5497712493    0.3424305916
C    -1.9679725170   -0.6194480062   -0.2597686052
C    -3.4148182869   -0.1141319945   -0.3361001015
C    -2.0494577885   -1.8759045601    0.5954392552
C    -1.6407583952   -1.0911855698   -1.6596546173
N    -0.3365548551    1.6845015287   -0.2973258793
I     0.5038830042    0.2825693190   -0.5060631633
C     2.5588943958   -0.0705128834   -0.1324253827
C     3.1713423729   -1.2283099890   -0.5107738972
F     2.4422636032   -2.1825094223   -1.1454910040
C     4.5144433975   -1.4328024387   -0.2543837726
F     5.1447200775   -2.5733392239   -0.6200373173
C     5.2557673454   -0.4532571137    0.3953562379
F     6.5823936462   -0.6157022715    0.6670049429
C     4.6395988464    0.7167778611    0.7784250379
F     5.3729238510    1.6658141613    1.4118829966
C     3.2833220959    0.9174274206    0.5167962909
F     2.7084457874    2.0804331303    0.9073889256
N    -1.8488335609    1.3200159073    1.3374396563
C    -2.6798062325    2.4646410942    1.2092530727
H    -3.9835700989   -0.9084604979   -0.8665587902
H    -3.4237456322    0.8634437323   -0.8526702523
H    -3.8645794392   -0.0222612433    0.6585226059
H    -2.9669387341   -2.4233908653    0.2318492085
H    -2.2336437702   -1.6856571436    1.6524528265
H    -1.2169059515   -2.5755872726    0.3764911592
H    -0.9741204381   -0.3517947495   -2.1923120022
H    -1.1294102669   -2.0949561596   -1.6424829960
H    -2.5200603008   -1.2081246376   -2.3129494190
H    -0.3643678427    2.7264459133   -0.3955637813
H    -2.3002319336    3.2830214500    1.8836462498
H    -2.5245285034    2.8602087498    0.1690321714
H    -3.7497797012    2.2863268852    1.3253332376
34

O    -0.4523526728    0.6548716426   -0.9388729930
S    -0.9832216501    0.1662658006    0.2744705081
C    -2.4049849510   -0.6469553709   -0.2441473454
C    -2.0458717346   -1.5239878893   -1.4390394688
C    -3.3651797771    0.4080052674   -0.7440556288
C    -3.0999147892   -1.5113604069    0.7389572859
N    -0.7192509770   -0.5842697024    1.6211282015
I     0.5138759017   -0.8686299920    0.6182477474
C     2.4706521034   -0.4423740506    0.1699210107
C     3.4090044498   -0.3504235744    1.2026505470
F     3.0156629086   -0.5435467958    2.4849627018
C     4.7345395088   -0.0677232444    0.9657899141
F     5.6385221481    0.0195782464    1.9748420715
C     5.1620297432    0.1337908357   -0.3350430429
F     6.4775009155    0.4152407050   -0.5799060464
C     4.2414588928    0.0455890931   -1.3705232143
F     4.6523790359    0.2422190905   -2.6536550522
C     2.8996403217   -0.2401177734   -1.1359221935
F     2.0294904709   -0.3185141683   -2.1699211597
N    -1.2899204493    1.5952030420    1.0762730837
C    -0.7959049344    2.8889393806    0.8385378718
H    -1.5858025551   -0.8603983521   -2.2007830143
H    -2.9409444332   -2.0537607670   -1.8185830116
H    -1.2860132456   -2.2401397228   -1.0933771133
H    -3.3083515167    0.5466123819   -1.8377164602
H    -3.1488368511    1.4182046652   -0.3008141220
H    -4.4206428528    0.1204200462   -0.4984493256
H    -2.3605427742   -2.2296721935    1.1600850821
H    -3.6787354946   -0.9934049845    1.5224723816
H    -3.8175876141   -2.1373221874    0.1698643714
H    -1.4645082951   -0.7859614491    2.2887489796
H    -1.5526276827    3.4615092278    0.2285941392
H    -0.6664042473    3.4723265171    1.7711358070
H     0.1428430825    2.8097865582    0.2541278899
34

O    -0.5955091715   -0.5701640248   -1.2293854952
S    -0.9798118472   -0.1362232715    0.0290155485
C    -2.5934300423   -0.3984327912    0.0947241113
C    -3.3079614639    0.9655053616    0.1395464987
C    -3.1405630112   -1.1655011177    1.3001284599
C    -3.2286832333   -1.0782804489   -1.1035978794
N    -0.7564601898    0.0839332342    1.5477356911
I     0.3368110359   -0.9611212611    0.9223855734
C     2.3230154514   -0.6101393700    0.3045857847
C     3.1519591808    0.1058302745    1.1694250107
F     2.6684665680    0.5510978699    2.3661341667
C     4.4705848694    0.3532683849    0.7876226306
F     5.2849636078    1.0572849512    1.6384919882
C     4.9520316124   -0.1086440086   -0.4405467808
F     6.2511310577    0.1519152820   -0.7835872173
C     4.1088819504   -0.8221398592   -1.2911384106
F     4.5967211723   -1.2631866932   -2.4823899269
C     2.7982513905   -1.0713239908   -0.9180444479
F     1.9835594893   -1.7621848583   -1.7428377867
N    -0.6692953706    1.6523295641   -0.2762832344
C     0.6505082846    1.9879301786   -0.6657286286
H    -2.7261495590    1.6651526690    0.7736333013
H    -4.3512940407    0.8405385017    0.4299070239
H    -3.3189601898    1.3721512556   -0.9072336555
H    -3.7592673302   -0.5597260594    1.9611381292
H    -2.2209582329   -1.4103808403    1.9086934328
H    -3.6200184822   -2.1088731289    1.0499807596
H    -3.0503995419   -2.1653614044   -0.9767761827
H    -4.3053073883   -0.8390913606   -1.2167767286
H    -2.6593382359   -0.7228485346   -2.0020251274
H    -1.2613550425    0.7210741639    2.1587796211
H     0.5697841048    2.8862049580   -1.3354842663
H     1.3627140522    2.1696438789    0.1451487392
H     1.0353779793    1.1897621155   -1.3552407026
34

O    -0.1284196228   -0.7288641334   -1.1624641418
S    -0.7718365788   -0.3877721131    0.0831371248
C    -2.2540090084    0.2436907589   -0.4797743559
C    -1.9808545113    1.2650332451   -1.5686284304
C    -3.1686878204    0.8688592911    0.5148229599
C    -3.0041201115   -0.8906798363   -1.1457407475
N    -0.6799651980    0.3379463851    1.4280531406
I     0.5747135878    0.8078939915    0.5311111808
C     2.5835313797    0.6391997337    0.1596389711
C     3.4233980179   -0.1555197984    0.9220391512
F     2.9037327766   -0.8485209942    1.9516478777
C     4.7790966034   -0.2381423414    0.6317709684
F     5.6204981804   -1.0130157471    1.3685636520
C     5.3372631073    0.4579046965   -0.4128898978
F     6.6497974396    0.4120870829   -0.7372426987
C     4.5197424889    1.2454903126   -1.1727578640
F     4.9740128517    1.9754327536   -2.2301013470
C     3.1799242496    1.3310564756   -0.8908494711
F     2.3606657982    2.1252117157   -1.6585249901
N    -0.8633812070   -1.9030903578    0.7446416616
C    -1.6210786104   -2.3954749107    1.8170920610
H    -1.2427434921    0.8638760448   -2.3201508522
H    -1.5504946709    2.1981635094   -1.1928539276
H    -2.9019856453    1.4682193995   -2.1697256565
H    -3.9803190231    1.3589776754   -0.0619275384
H    -2.6738018990    1.7042776346    1.0806323290
H    -3.6531562805    0.1349296272    1.1910579205
H    -2.3186745644   -1.4792965651   -1.7762246132
H    -3.4137783051   -1.5042322874   -0.3049689531
H    -3.8462557793   -0.4275172651   -1.7094289064
H    -1.4428994656    0.3341391087    2.1043124199
H    -2.3206977844   -3.2264833450    1.5292390585
H    -0.8985610604   -2.8937072754    2.5274167061
H    -2.1906549931   -1.6800725460    2.4090769291
34

O    -0.3569616079    0.6740982533    1.2354726791
S    -1.0100353956    0.7588887215    0.1118907183
C    -1.9229460955   -0.7064163089    0.0165727381
C    -2.1046931744   -1.3753069639    1.3730924129
C    -1.3206695318   -1.7340195179   -0.9012059569
C    -3.3332097530   -0.3885900080   -0.4792716801
N    -0.9997639656    0.8753381371   -1.5325971842
I     0.5037960410    0.9864372015   -0.9702434540
C     2.3610744476    0.2320494354   -0.6080757380
C     2.8084173203   -0.9899826050   -1.0811744928
F     1.9906144142   -1.7531031370   -1.8305824995
C     4.0679721832   -1.4674495459   -0.8171347380
F     4.4606919289   -2.6797478199   -1.3076255322
C     4.9552140236   -0.7562825680   -0.0669329315
F     6.2118387222   -1.1621693373    0.2344647795
C     4.5458912849    0.4715873897    0.4250421226
F     5.3633165359    1.2489013672    1.1819498539
C     3.2799916267    0.9561583996    0.1622021645
F     2.9041607380    2.1638584137    0.6571726799
N    -2.0308306217    2.1189804077    0.2414034307
C    -1.9591401815    3.0607008934    1.3223812580
H    -2.8090143204   -0.7462108731    1.9622639418
H    -1.1252057552   -1.3076272011    1.9034636021
H    -2.4200832844   -2.4125804901    1.2573118210
H    -1.9997448921   -2.6009559631   -0.9226493239
H    -0.3270004690   -1.9925481081   -0.4630999267
H    -1.2314395905   -1.3311152458   -1.9441207647
H    -4.0955181122   -0.4741137028    0.3023949564
H    -3.3938286304    0.6482729912   -0.8793897629
H    -3.6339440346   -1.0626862049   -1.3134528399
H    -1.8042006493    0.9122294784   -2.1422827244
H    -2.0741832256    4.0972843170    0.9949020743
H    -2.5994777679    2.7556049824    2.1652774811
H    -0.9010881782    2.9805154800    1.7125806808
34

O    -2.2240362167    1.3620676994   -1.3517786264
S    -1.2464408875    0.3836397231   -0.7466771007
C    -2.3696155548   -0.6552820206    0.1356729418
C    -2.6304194927   -1.8591034412   -0.7558026910
C    -3.6661636829   -0.0055187065    0.4686332345
C    -1.7605884075   -1.1458536386    1.4274715185
N    -0.6742751598   -0.0736233070   -2.0468258858
I     0.1128773242   -0.6453498006   -0.7201853395
C     2.1431479454   -0.3666409254   -0.2130040228
C     2.9573075771    0.3985068500   -1.0567111969
F     2.4551656246    0.9599709511   -2.1923732758
C     4.2796258926    0.5668078661   -0.7052060962
F     5.0910134315    1.3057179451   -1.5081653595
C     4.8254237175    0.0235150270    0.4218681753
F     6.1139712334    0.2076701224    0.7321338654
C     4.0282382965   -0.7221911550    1.2423852682
F     4.5590443611   -1.2608376741    2.3549802303
C     2.6900596619   -0.9165553451    0.9251959920
F     1.9435845613   -1.6504695415    1.7506357431
N    -0.5516175032    1.4900220633    0.3172542751
C    -0.1995310485    2.8289902210    0.0832336023
H    -3.7131989002   -1.9599183798   -1.0143046379
H    -2.3615372181   -2.8106987476   -0.2236834913
H    -2.0124549866   -1.8585023880   -1.6647833586
H    -3.9759650230    0.6084054112   -0.4276249409
H    -3.5617105961    0.7131955028    1.2987686396
H    -4.4031138420   -0.8046061993    0.6608594060
H    -0.6650546789   -1.0019065142    1.4976316690
H    -2.2351844311   -0.6430908442    2.3130722046
H    -1.9879207611   -2.2272531986    1.5480396748
H    -0.6486161351    0.0777611732   -3.0745205879
H    -0.4226410687    3.4998641014    0.9580973387
H     0.8912351131    2.9411556721   -0.1696421802
H    -0.7806091905    3.2401108742   -0.7680555582
34

O    -0.1756522655   -0.3419124782   -1.3962808847
S    -0.7596581578    0.3044220507   -0.2536754012
C    -2.2694265842   -0.4496189058   -0.1553797126
C    -2.0604960918   -1.9635063410   -0.2703418434
C    -3.0920784473   -0.0303751025   -1.3440604210
C    -3.1030402184   -0.2335518003    1.0612885952
N    -0.5862733722    0.7414828539    1.2175751925
I     0.6057006121   -0.2821093798    0.8527784348
C     2.6020994186   -0.4468347132    0.3978168070
C     3.2494211197    0.5081902146   -0.3587450087
F     2.5388329029    1.5764036179   -0.8065540791
C     4.5921268463    0.4178781807   -0.6770950556
F     5.2059807777    1.3625956774   -1.4181495905
C     5.3152790070   -0.6671288610   -0.2226371765
F     6.6457352638   -0.7379145026   -0.5493912697
C     4.6876621246   -1.6251866817    0.5302840471
F     5.4395332336   -2.6785798073    0.9576748013
C     3.3469035625   -1.5297319889    0.8449890018
F     2.7635579109   -2.4972763062    1.5913652182
N    -0.7866052985    1.8699636459   -0.8417041302
C    -1.5863956213    2.9549922943   -0.4299682081
H    -1.7138468027   -2.1222200394   -1.3139950037
H    -2.9589135647   -2.5160465240    0.0036506662
H    -1.1962798834   -2.1962344646    0.4175168872
H    -2.5347778797    0.1749890149   -2.2553925514
H    -3.7956867218    0.8001477122   -1.0571966171
H    -3.7932579517   -0.8802366257   -1.5809834003
H    -2.5655870438   -0.6868848205    1.9234141111
H    -3.3992056847    0.8175003529    1.2453489304
H    -4.0244741440   -0.8384758830    0.9275873899
H    -1.3186080456    1.2615231276    1.7095105648
H    -2.6587738991    2.8853323460   -0.7114663124
H    -1.4327826500    3.1754839420    0.6537319422
H    -1.1810120344    3.8729202747   -0.9483006597
34

O    -0.4598159194    1.5348571539   -0.0556839965
S    -0.8766676188    0.1321628839   -0.1255711168
C    -2.5159845352    0.3575966954    0.1658991575
C    -3.4039576054   -0.8178772926    0.3771578968
C    -3.0481438637    1.0182909966   -1.1187875271
C    -2.8340446949    1.3798271418    1.2449265718
N    -0.7454660535   -1.2389351130    0.5899856091
I     0.2733252645   -0.2195788324    1.3480213881
C     2.3265676498    0.0688612238    0.9691645503
C     3.1614742279   -1.0268952847    1.2167762518
F     2.6505651474   -2.2086207867    1.6785758734
C     4.5362539291   -0.9376634955    0.9975330830
F     5.3531594276   -2.0044426918    1.2380241156
C     5.0444970131    0.2464567125    0.5353358388
F     6.3786649704    0.3262238503    0.3248169124
C     4.2174973488    1.3092315197    0.2975551188
F     4.7068214417    2.4911148548   -0.1612482816
C     2.8428766727    1.2517817020    0.5062510371
F     2.0135266781    2.2750144005    0.2818874419
N    -0.4213024080   -0.2833894491   -1.6142609119
C     0.2462903410   -1.4221731424   -2.1299324036
H    -4.4556593895   -0.4960233867    0.2635515630
H    -3.2632722855   -1.2811305523    1.3746645451
H    -3.2366466522   -1.5643686056   -0.4380632639
H    -2.2857284546    1.6807874441   -1.5776863098
H    -4.0116081238    1.4959992170   -0.9506270885
H    -3.1560745239    0.1617596149   -1.8416266441
H    -2.3441181183    2.3489973545    1.0776950121
H    -3.9365682602    1.5924687386    1.1218022108
H    -2.7314374447    0.9769175649    2.2713716030
H    -1.2651661634   -2.0413305759    0.2261551470
H     1.0385124683   -1.0933923721   -2.8622562885
H     0.7242823243   -1.9465837479   -1.2743164301
H    -0.5226529837   -2.0659437180   -2.5922029018
34

O    -0.2733848393   -0.1626153439    1.4206054211
S    -0.7826998830   -0.3389402926    0.0812406093
C    -2.2445034981    0.5389631391    0.1261243373
C    -3.3885765076   -0.4570085406    0.2750659883
C    -2.5777254105    1.3672872782   -1.0862166882
C    -2.3818299770    1.4961335659    1.2956720591
N    -0.4777893424   -0.2895011902   -1.4268800020
I     0.7040053010    0.4955730736   -0.6498206854
C     2.6474916935    0.4460993707   -0.0003665788
C     3.3409347534   -0.7564927936    0.0620511100
F     2.7562010288   -1.9346249104   -0.3038017452
C     4.6450109482   -0.8180025220    0.4937770963
F     5.3118042946   -1.9909973145    0.5513906479
C     5.3075199127    0.3399001360    0.8830109239
F     6.5856914520    0.2835979760    1.3067151308
C     4.6230845451    1.5404337645    0.8233438134
F     5.2885475159    2.6671125889    1.2091242075
C     3.3193180561    1.5890638828    0.3898812532
F     2.6420445442    2.7656779289    0.3292014003
N    -0.9767643213   -1.9741474390    0.1141905040
C    -1.5905972719   -2.8712096214   -0.7744974494
H    -4.2678599358    0.1116457283    0.6761046052
H    -3.0547938347   -1.2530000210    0.9392599463
H    -3.6605165005   -0.7774106264   -0.7560001612
H    -1.8375848532    2.2049419880   -1.2050559521
H    -3.5542044640    1.8507170677   -0.8590607643
H    -2.7109401226    0.8171948195   -2.0140376091
H    -2.2181789875    2.5512924194    1.0110946894
H    -3.3253536224    1.3761309385    1.8568414450
H    -1.5565224886    1.2645827532    2.0277793407
H    -1.1757849455   -0.5209352970   -2.1335728168
H    -1.2557590008   -2.6946349144   -1.8374953270
H    -1.1743696928   -3.8968410492   -0.5488658547
H    -2.6859138012   -2.9699866772   -0.7022693157
34

O    -0.7000514865   -0.2421509624    1.5413607359
S    -1.1239399910   -0.7600454688    0.2852471471
C    -1.8393784761    0.5454601645   -0.4626512825
C    -0.9049830437    1.7501769066   -0.3280200958
C    -3.0722732544    0.9392154217    0.3269612193
C    -2.2267472744    0.4639551342   -1.8961011171
N    -0.8897029161   -1.6767810583   -0.9224467278
I     0.4938762486   -1.4484015703   -0.1198625118
C     2.2233147621   -0.3470618427    0.0152436653
C     2.5758991241    0.4600987136    1.0789040327
F     1.7182154655    0.5371956825    2.1203136444
C     3.7736554146    1.1770983934    1.0910999775
F     4.0994710922    1.9642561674    2.1473994255
C     4.6506385803    1.1101336479    0.0473488607
F     5.8070316315    1.7931979895    0.0428050347
C     4.3165307045    0.3083405495   -1.0262496471
F     5.1950998306    0.2450679243   -2.0651173592
C     3.1459183693   -0.3920557201   -1.0375386477
F     2.8735268116   -1.1681556702   -2.1305408478
N    -2.3205113411   -1.8646985292    0.9450610876
C    -1.8580694199   -2.8571107388    1.8387922049
H    -0.4880965650    1.7421648502    0.7083156705
H    -1.4447774887    2.6974906921   -0.5114045739
H    -0.0461156890    1.6177891493   -1.0133910179
H    -3.3213632107    2.0053203106    0.1197076440
H    -2.8817131519    0.7466570139    1.3914525509
H    -3.9017567635    0.2709524035    0.0176271927
H    -2.7985539436    1.3987208605   -2.1383030415
H    -1.3451383114    0.4909994900   -2.5806877613
H    -2.9184637070   -0.3631721735   -2.1332223415
H    -1.6020979881   -1.8776708841   -1.6309912205
H    -1.5379819870   -3.7804994583    1.2908507586
H    -1.0025063753   -2.4268307686    2.4078962803
H    -2.6489558220   -3.0596563816    2.5801410675
34

O    -0.4237918258   -0.3558850288    1.3478808403
S    -1.0327949524   -0.2038526833    0.0418649837
C    -2.2736072540    0.9647883773    0.4548795819
C    -1.5669076443    2.2109951973    0.9377199411
C    -3.1174504757    0.3494080603    1.5271978378
C    -3.1602509022    1.3337930441   -0.6915675998
N    -0.8053274751    0.2242544442   -1.4253145456
I     0.5503625274    0.5599371791   -0.6257801652
C     2.4716057777   -0.0198160633   -0.2267232090
C     3.4806230068    0.9441618323   -0.1106235757
F     3.1342155933    2.2658984661   -0.2722828984
C     4.7891082764    0.5946617126    0.1578291208
F     5.6920351982    1.6090056896    0.2505312562
C     5.1597371101   -0.7171445489    0.3232616186
F     6.4517831802   -0.9799003601    0.5822899938
C     4.1862101555   -1.6777557135    0.2134962678
F     4.5335478783   -2.9646530151    0.3727765381
C     2.8788380623   -1.3287042379   -0.0547193028
F     1.9468778372   -2.3109788895   -0.1551699638
N    -1.5399135351   -1.6727399826   -0.2530630529
C    -1.4201720953   -2.6271929741   -1.2763085365
H    -2.1962440014    3.1007575989    0.9331270456
H    -0.6255304813    2.3146784306    0.3413968384
H    -1.2002772093    1.9625810385    1.9763822556
H    -4.1297469139    0.8043589592    1.5152176619
H    -2.6932785511    0.4551660717    2.5274167061
H    -3.2507917881   -0.7309373021    1.2414515018
H    -2.5582332611    1.9630715847   -1.4112372398
H    -3.5664002895    0.4465065598   -1.2159729004
H    -3.9283993244    1.9994112253   -0.3033426106
H    -1.5892523527    0.2927992046   -2.0777788162
H    -2.1631011963   -3.4644715786   -1.1287418604
H    -1.6230567694   -2.2473058701   -2.2948827744
H    -0.4104156494   -3.0948965549   -1.2212109566
34

O    -0.3809629381   -1.1212432384    1.2908593416
S    -1.0575419664   -0.4989238977   -0.1986880004
C    -1.8579366207    0.9669150710    0.1450034678
C    -2.6192417145    0.8939746022    1.4759646654
C    -2.9112179279    1.1816211939   -0.9075968862
C    -1.0204684734    2.1975140572    0.2320427448
N    -0.6879167557   -1.0192757845   -1.5172162056
I     0.3644364476    0.0110918432   -0.8169232011
C     2.3441460133    0.0108153205   -0.1833627969
C     3.1302459240   -1.1094082594   -0.4613025784
F     2.6006247997   -2.1802432537   -1.1370748281
C     4.4517760277   -1.1778595448   -0.0706358477
F     5.2061223984   -2.2857670784   -0.3529267609
C     5.0405859947   -0.1236422062    0.6162162423
F     6.3484935760   -0.1804011017    1.0080535412
C     4.2757086754    1.0037055016    0.9043207169
F     4.8026871681    2.0658028126    1.5751132965
C     2.9484462738    1.0446532965    0.4988131225
F     2.2211999893    2.1273503304    0.7778393626
N    -2.3085250854   -1.4516328573   -0.0176935140
C    -2.4138693810   -2.8658084869    0.1940777004
H    -3.0001227856   -0.1125994250    1.6793415546
H    -3.4640522003    1.6177110672    1.4209282398
H    -1.9691199064    1.2950797081    2.2936787605
H    -3.4987761974    0.2441679984   -0.9909858108
H    -2.3650279045    1.3558077812   -1.8621059656
H    -3.5596537590    2.0481853485   -0.6599910259
H    -0.2821567953    2.2168152332   -0.5870256424
H    -1.7185655832    3.0634045601    0.1966113895
H    -0.4473312497    2.1740331650    1.1861743927
H    -0.9153188467   -1.6917700768   -2.2834889889
H    -1.3698951006   -3.2494521141    0.3095504642
H    -3.0718398094   -3.1194562912    1.0235852003
H    -2.8149318695   -3.3311655521   -0.7446363568
34

O    -0.2145972699    0.2820555866   -1.6243172884
S    -1.0244383812    0.6164031029   -0.1777113974
C    -2.1315660477   -0.6883297563    0.1760457456
C    -1.4771988392   -2.0305888653   -0.1084363461
C    -3.4443252087   -0.6209636927   -0.5105197430
C    -2.4100463390   -0.6054447293    1.6754349470
N    -0.5633044243    1.5564459562    0.8638269901
I     0.2844215035    0.1547276825    0.7667132020
C     2.3344621658   -0.1917012632    0.4279584885
C     3.2508318424    0.5851659179    1.1168860197
F     2.8322138786    1.5472784042    1.9900088310
C     4.6044220924    0.4035409093    0.9357745051
F     5.5314397812    1.1558285952    1.6023671627
C     5.0488004684   -0.5600349903    0.0610574372
F     6.3963303566   -0.7289066911   -0.1084576622
C     4.1375217438   -1.3131978512   -0.6065605879
F     4.5950202942   -2.2612586021   -1.4674483538
C     2.7659440041   -1.1736787558   -0.4631929398
F     1.8727447987   -1.9172745943   -1.1224123240
N    -1.9835852385    1.6211030483   -0.8733163476
C    -1.7599787712    2.8054964542   -1.6706520319
H    -1.9897404909   -2.8058581352    0.4979971945
H    -0.4489901662   -1.9774138927    0.2658873200
H    -1.5054107904   -2.2185254097   -1.1826127768
H    -4.2869501114   -0.2521127462    0.1181846559
H    -3.7232370377   -1.5715287924   -1.0405292511
H    -3.3670098782    0.1196198240   -1.3585517406
H    -2.2287392616   -1.5778080225    2.1644454002
H    -1.7797595263    0.1231708452    2.1985087395
H    -3.4579207897   -0.3368531168    1.8926798105
H    -0.6065404415    2.5331737995    1.2297874689
H    -1.1928938627    2.5725667477   -2.5947504044
H    -2.7628004551    3.1306433678   -1.9774330854
H    -1.2951196432    3.6242594719   -1.0966615677
34

O    -0.1820093542    1.0416717529   -1.4853988886
S    -0.8106783032   -0.3466989696   -0.5993152261
C    -2.1312921047    0.3036786020    0.3825529516
C    -1.6560941935    1.0619174242    1.5802643299
C    -2.9381093979   -0.8956913948    0.7853915691
C    -3.0495557785    1.1723859310   -0.4561522603
N    -0.1991372705   -1.5786699057   -0.4178406298
I     0.4956537783   -0.3227229714    0.3861003816
C     2.5377917290    0.2194519639    0.2681261003
C     3.4297983646   -0.5453025103   -0.4755243361
F     2.9898378849   -1.6617163420   -1.1409116983
C     4.7628879547   -0.2240484655   -0.5751047134
F     5.5888996124   -1.0016286373   -1.3116922379
C     5.2278227806    0.9008370638    0.0900782347
F     6.5476794243    1.1856595278   -0.0315009803
C     4.3622064590    1.6744389534    0.8334779739
F     4.8159890175    2.7654228210    1.4779473543
C     3.0229105949    1.3161513805    0.9089624882
F     2.1921131611    2.1077852249    1.6564146280
N    -1.6816020012   -0.6838913560   -1.8780448437
C    -2.1773281097   -1.8261754513   -2.5278489590
H    -0.5903965831    1.3354369402    1.5819739103
H    -1.9286741018    0.5004100204    2.5067424774
H    -2.2191123962    2.0201129913    1.6582378149
H    -2.3368055820   -1.8281165361    0.7927068472
H    -3.8148808479   -1.0781413317    0.1297906041
H    -3.3678832054   -0.7569734454    1.8165354729
H    -2.8817272186    2.2376110554   -0.2637822628
H    -2.8174896240    0.9646780491   -1.5385454893
H    -4.1214394569    0.8784694076   -0.3600420356
H    -0.0676004812   -2.5411341190   -0.8072754145
H    -2.1653802395   -2.7341959476   -1.8623572588
H    -3.2211468220   -1.6429086924   -2.7928495407
H    -1.6152474880   -2.0181028843   -3.4871535301
34

O    -0.6713188291    1.0229965448    1.2696394920
S    -0.9881106019    0.3464302421    0.1994292140
C    -2.2197663784   -0.8158537149    0.7423629761
C    -1.7367886305   -2.2086060047    0.3762030602
C    -3.5656151772   -0.5200118423    0.1140826717
C    -2.4123520851   -0.7987610698    2.2259664536
N    -1.0285995007   -0.1839414537   -1.2893140316
I     0.4095338285    0.0404122584   -0.6045332551
C     2.4307022095    0.0939989313   -0.4787387252
C     3.2499558926   -0.1764993668   -1.5799962282
F     2.6420309544   -0.4842045009   -2.7677266598
C     4.6274824142   -0.1338977665   -1.4702439308
F     5.3666133881   -0.4091349244   -2.5868806839
C     5.2253689766    0.1751475781   -0.2768840790
F     6.5791311264    0.2037353963   -0.2213475555
C     4.4498634338    0.4455197155    0.8220188022
F     5.0141468048    0.7565582991    2.0246980190
C     3.0739965439    0.4058579803    0.7237865925
F     2.3342907429    0.6825838089    1.8463100195
N    -2.1270861626    1.7476499081   -0.4684485197
C    -1.3456215858    2.6869599819   -1.2123665810
H    -1.3601443768   -2.1930787563   -0.6563565135
H    -2.5562613010   -2.9273927212    0.5595296025
H    -0.8682880402   -2.4143626690    1.0254014730
H    -3.4758443832    0.0457486287   -0.8191151619
H    -4.1903767586    0.0598194562    0.8262613416
H    -4.0355253220   -1.5145606995   -0.0856999978
H    -2.5297818184    0.2536328435    2.6180877686
H    -3.3916988373   -1.2837288380    2.4194529057
H    -1.6032333374   -1.3270305395    2.7637414932
H    -1.7778367996   -0.4843174815   -1.9030683041
H    -0.3217166662    2.8377528191   -0.7875776887
H    -1.3388413191    2.4085347652   -2.2690396309
H    -1.8583079576    3.6620433331   -1.0796343088
34

O    -1.7181565762    2.3073892593   -0.5832251906
S    -0.9407042861    0.5710402727   -0.0980460271
C    -2.4042770863   -0.1985937357    0.5077308416
C    -1.9465116262   -1.0451041460    1.6698020697
C    -3.1162483692   -1.0305836201   -0.5004853606
C    -3.3605110645    0.8355830908    1.0733200312
N    -0.6362831593    1.3245680332    1.2419506311
I     0.5544911623    0.5796687603    0.4504297078
C     2.4901003838    0.0628560558    0.2262173146
C     2.9757938385   -0.5681824684   -0.9261050224
F     2.1696641445   -0.8645399809   -1.9511259794
C     4.3140535355   -0.9099505544   -1.0471622944
F     4.7590894699   -1.5217688084   -2.1764740944
C     5.2160010338   -0.6464438438   -0.0491113923
F     6.5309772491   -0.9603956938   -0.1202465743
C     4.7602772713   -0.0303036869    1.0846645832
F     5.5988979340    0.2634352446    2.1191701889
C     3.4389238358    0.3171929419    1.2261495590
F     3.0159528255    0.9344599843    2.3777096272
N    -0.9041803479    0.2342109680   -1.4075043201
C    -0.8271737695    0.6509029865   -2.7589025497
H    -0.9949495792   -1.5305964947    1.3615089655
H    -2.6771409512   -1.8623539209    1.8128349781
H    -1.7228318453   -0.4777150452    2.5854058266
H    -4.2190070152   -1.0102863312   -0.2915382683
H    -2.7801096439   -2.0916533470   -0.5190656185
H    -2.9696974754   -0.5342692733   -1.4954344034
H    -4.3980941772    0.5938853025    0.7665631771
H    -3.3555335999    0.8572272062    2.1925480366
H    -3.1491024494    1.8602982759    0.6622884870
H    -1.2225942612    1.7397168875    1.9671895504
H    -1.4072959423   -0.0938141942   -3.3469622135
H    -1.2985137701    1.6332097054   -2.9497673512
H     0.2246946990    0.6109101772   -3.1043272018
34

O    -2.3165829182   -0.7224134803   -1.6559743881
S    -1.2456076145   -0.1003505811   -0.8389717340
C    -2.2841823101    0.5963015556    0.4493748844
C    -2.6227707863    1.9826005697   -0.0016780660
C    -1.5146304369    0.6742075086    1.7558553219
C    -3.4870517254   -0.2547317445    0.7167333961
N    -0.7268388867    0.8110707998   -1.9105182886
I     0.1133745834    0.8997743130   -0.5012434125
C     2.1450622082    0.4434669912   -0.1685443223
C     2.9381577969   -0.0272856914   -1.2105041742
F     2.3784828186   -0.1868811697   -2.4445619583
C     4.2763853073   -0.3230842352   -0.9724131227
F     5.0683598518   -0.7869483232   -1.9880185127
C     4.8326625824   -0.1580613554    0.2797264159
F     6.1506443024   -0.4465509057    0.5255748630
C     4.0484738350    0.3094017208    1.3179830313
F     4.5704383850    0.4854857624    2.5779681206
C     2.7190988064    0.6021367311    1.0770326853
F     1.9383268356    1.0648448467    2.0999708176
N    -0.5327531695   -1.4980030060   -0.2684129775
C    -0.4442378283   -2.7640891075   -0.8831039667
H    -2.5207474232    2.1242697239   -1.0873987675
H    -2.0038933754    2.7283542156    0.4917847812
H    -3.6947193146    2.1656682491    0.2364247739
H    -0.7717553377    1.4976242781    1.7306991816
H    -1.0408873558   -0.2806402445    2.0149431229
H    -2.2574648857    0.9072187543    2.5246174335
H    -3.4122271538   -0.8681836724    1.6141617298
H    -4.3634352684    0.4093058109    0.8368251920
H    -3.7273921967   -0.9272689223   -0.1580847502
H    -0.7819673419    1.0338770151   -2.9248368740
H    -0.3947687149   -3.5929250717   -0.1480183005
H    -1.4012258053   -2.9118664265   -1.4648606777
H     0.3656727672   -2.8863248825   -1.6225316525
34

O    -0.3001485169   -0.4886308312    1.2613523006
S    -0.9431911707    0.2881243527   -0.2567479610
C    -2.2593924999   -0.7935799360   -0.0762430355
C    -3.0178360939   -0.6337364316    1.2258087397
C    -1.8643869162   -2.2697155476   -0.1507325768
C    -3.2660789490   -0.5154758692   -1.1958475113
N    -0.5845512152   -0.2510110140   -1.5349470377
I     0.4776408970    0.7223392129   -0.7476290464
C     2.5032064915    0.4011723101   -0.2426410466
C     3.3193366528    1.4187513590    0.2027652711
F     2.8248062134    2.6570723057    0.3241524994
C     4.6423482895    1.1784354448    0.5261583328
F     5.4513864517    2.1780526638    0.9657733440
C     5.1968293190   -0.0985073522    0.4135870039
F     6.5068969727   -0.3036819994    0.7407540679
C     4.3901038170   -1.1132606268   -0.0285615548
F     4.9125761986   -2.3675451279   -0.1454177499
C     3.0615973473   -0.8779191375   -0.3545577228
F     2.2918679714   -1.9271126986   -0.7935039997
N    -1.7435829639    1.6136140823    0.1869134605
C    -1.3399422169    2.9393081665    0.4550311565
H    -4.0953431129   -0.3782705665    1.0748683214
H    -2.6236233711    0.1664379090    1.8748736382
H    -3.0344247818   -1.5548819304    1.8433029652
H    -2.6427474022   -2.8901720047    0.3470222354
H    -0.9195017815   -2.4157638550    0.4002969265
H    -1.7701710463   -2.5332868099   -1.2071716785
H    -3.6277749538    0.5289806724   -0.9742713571
H    -2.7798161507   -0.4489694238   -2.1701066494
H    -4.1026563644   -1.2149324417   -1.1597218513
H    -0.7925959826   -0.8822178841   -2.3409383297
H    -1.8843702078    3.2896027565    1.3584032059
H    -0.2509054542    3.0067498684    0.5665056705
H    -1.7355557680    3.5700304508   -0.3885299563
34

O    -1.9865274429    1.3049623966    1.7877966166
S    -0.9531783462    0.1195021495    0.4753754735
C    -2.2518527508   -0.8942592144    0.0468597114
C    -3.3409831524   -0.9310854673    1.1289604902
C    -1.7548458576   -2.2981843948   -0.0737714171
C    -2.9660153389   -0.5271463394   -1.2348266840
N    -0.6256299615   -0.6283869147    1.8044580221
I     0.5758368969   -0.0287247561    0.9069314003
C     2.5140311718    0.2438684106    0.3657757044
C     3.2799887657    1.3162374496    0.8219467402
F     2.7466254234    2.2383837700    1.6634583473
C     4.5949497223    1.4823749065    0.4417520165
F     5.3310408592    2.5278329849    0.8904972076
C     5.1958222389    0.5822505951   -0.4099217355
F     6.4863419533    0.6931948662   -0.8192500472
C     4.4714322090   -0.4816105366   -0.8758521676
F     5.0242967606   -1.4088065624   -1.7282394171
C     3.1712553501   -0.6342038512   -0.4918191731
F     2.4542162418   -1.6918387413   -0.9561895728
N    -1.0362412930    1.1757564545   -0.4004716277
C    -1.0988413095    2.5750849247   -0.6417673230
H    -4.2786731720   -1.2857118845    0.6565492749
H    -3.5033876896    0.0535903648    1.5954831839
H    -3.0880000591   -1.7280511856    1.8881881237
H    -0.6908019185   -2.4315032959    0.2450180054
H    -1.8427872658   -2.6710064411   -1.1357907057
H    -2.3414947987   -3.0474770069    0.5143496990
H    -3.6308658123    0.3359437585   -0.9577839971
H    -2.2937157154   -0.3195541799   -2.0700616837
H    -3.6677834988   -1.3763122559   -1.4550789595
H    -1.1724798679   -1.1223164797    2.5094599724
H    -0.5170423985    3.1246414185    0.1468098611
H    -0.6525820494    2.7558920383   -1.6484800577
H    -2.1521074772    2.9766631126   -0.5735937953
34

O    -0.9862653613    1.8282862902   -1.4616366625
S    -0.7550874352    0.5021762848    0.0022774132
C    -2.3502175808    0.4448557198    0.0122000892
C    -2.9001560211   -0.4568779767    1.1263636351
C    -2.9327762127   -0.1424823701   -1.2797485590
C    -3.0941827297    1.7597625256    0.2170548588
N    -0.6409337521    1.2933237553    1.2569596767
I     0.6899495721    1.3800747395    0.3230737150
C     2.5873534679    0.5656086206    0.0959813893
C     3.0033612251    0.2241345048   -1.1952337027
F     2.1655342579    0.4301329255   -2.2656943798
C     4.2470145226   -0.3221286535   -1.4387273788
F     4.6107573509   -0.6410191059   -2.7225763798
C     5.1172447205   -0.5444394946   -0.3902985454
F     6.3368220329   -1.0836473703   -0.6558557749
C     4.7118782997   -0.2093081474    0.8861110210
F     5.5788168907   -0.4340756536    1.9054031372
C     3.4691393375    0.3371078670    1.1336371899
F     3.0595169067    0.6708487868    2.3860678673
N    -0.3333159685   -0.7440040112   -0.6808112264
C    -0.5905182362   -2.1102380753   -0.9178329110
H    -2.1597871780   -1.1887079477    1.4727845192
H    -3.8688037395   -0.9050747156    0.8199031949
H    -3.1439924240    0.1613114625    2.0331614017
H    -2.1275324821   -0.1627491266   -2.0336670876
H    -3.7790102959    0.4124313891   -1.6734333038
H    -3.2498323917   -1.1999936104   -1.1499552727
H    -4.1496844292    1.6811392307   -0.0818784088
H    -2.9640369415    2.0762856007    1.2759532928
H    -2.5408279896    2.5270614624   -0.3822853863
H    -1.1089785099    1.4441601038    2.1794123650
H     0.3293682337   -2.7194116116   -0.6805791259
H    -1.4204013348   -2.5568816662   -0.3551242650
H    -0.8104160428   -2.3176617622   -1.9987165928
34

O    -0.7877105474   -2.3980758190   -0.2947855294
S    -0.8186473250   -0.7071209550   -0.2721680403
C    -2.4238355160   -0.1107345149   -0.1866423488
C    -3.0962173939   -0.2249483913    1.1467757225
C    -3.3698318005   -0.8250107765   -1.1632130146
C    -2.3958418369    1.3245393038   -0.6059412956
N    -0.6392306089   -0.5960933566   -1.7541700602
I     0.4773822725    0.2867909670   -1.0028107166
C     2.4593780041    0.4165964425   -0.5752674937
C     2.9206852913    0.7233591080    0.7026619911
F     2.0340590477    0.9443895817    1.7007503510
C     4.2613291740    0.8074360490    0.9759191871
F     4.6491751671    1.1127856970    2.2524836063
C     5.1848988533    0.5865035057   -0.0240770280
F     6.5205469131    0.6652604938    0.2267895937
C     4.7682147026    0.2811859846   -1.2986599207
F     5.7059082985    0.0683607683   -2.2649946213
C     3.4198398590    0.1968679726   -1.5724658966
F     3.0295124054   -0.1074767113   -2.8445706367
N    -0.3707966805   -0.5066970587    1.0933766365
C    -0.5678812861   -1.2077931166    2.2962782383
H    -3.4477031231   -1.2665672302    1.2748413086
H    -4.0524182320    0.3690705299    1.0413912535
H    -2.5650327206    0.2103303969    1.9897339344
H    -3.2342243195   -0.3906289637   -2.1718733311
H    -4.4134430885   -0.7640007138   -0.8362334967
H    -3.0610003471   -1.9104641676   -1.1869413853
H    -3.4601986408    1.6767735481   -0.6022036672
H    -1.8733944893    1.9619965553    0.1341354102
H    -1.9876548052    1.4689534903   -1.6183955669
H    -1.2819364071   -0.9640373588   -2.4780550003
H     0.3622170985   -1.8292765617    2.4569454193
H    -0.5480174422   -0.4350362420    3.1153955460
H    -1.3981305361   -1.9038842916    2.3459908962
34

O    -0.2771104574    0.2683532536   -1.2059237957
S    -0.8947405815    0.2494961023    0.4572589099
C    -2.2349729538   -0.5803964734   -0.1441609710
C    -3.0254352093    0.1892495304   -1.1995037794
C    -3.2397325039   -0.8201845884    0.9863235354
C    -1.8353800774   -1.8999360800   -0.7623375058
N    -0.5574093461   -0.7753548026    1.3906242847
I     0.5704979300    0.3802632093    1.0836139917
C     2.5849733353    0.0925280601    0.4455524683
C     3.3945848942    1.1871682405    0.1621800512
F     2.9024171829    2.4615836143    0.2912472785
C     4.7139515877    1.0153646469   -0.2560732067
F     5.5192189217    2.0617537498   -0.5369885564
C     5.2290806770   -0.2456015050   -0.3927977085
F     6.5026702881   -0.4332932234   -0.7960458994
C     4.4166283607   -1.3265689611   -0.1088226140
F     4.9731211662   -2.5700151920   -0.2591673732
C     3.1071674824   -1.1809473038    0.3068489432
F     2.3453075886   -2.2705347538    0.5748339891
N    -1.6545982361    1.6876512766    0.7268909216
C    -1.6102986336    2.8623082638   -0.0659447089
H    -2.3698005676    0.6426790357   -1.9648500681
H    -3.6771049500    0.8966628313   -0.6640448570
H    -3.6932718754   -0.5594072342   -1.6732559204
H    -2.6974229813   -0.9013865590    1.9575480223
H    -3.8015987873   -1.7483181953    0.7592953444
H    -3.9044291973    0.0670283213    1.0573873520
H    -2.2090439796   -2.7412953377   -0.1504145116
H    -2.2092833519   -2.0135419369   -1.7970728874
H    -0.7194503546   -1.9709856510   -0.8333494067
H    -0.7665027380   -1.6992937326    1.8320096731
H    -2.3037106991    2.8543872833   -0.9401726723
H    -1.9714735746    3.7120146751    0.5593397617
H    -0.6068485379    3.1085696220   -0.4654552042
34

O    -0.3943867683   -0.9685149193   -0.9705311656
S    -0.9674510956   -0.3940022290    0.0519814640
C    -2.3827326298    0.4019923210   -0.5359149575
C    -2.5362088680    0.2724857330   -2.0383865833
C    -2.3673682213    1.9127548933   -0.2816217244
C    -3.6080486774   -0.1997287273    0.0920488015
N    -1.0105011463    0.3594815135    1.4687702656
I     0.4193643332    0.4701529145    0.7551912069
C     2.3942468166    0.4968270361    0.3677096069
C     2.8954029083    0.4708898067   -0.9366384149
F     1.9729588032    0.4259321094   -1.9526783228
C     4.2517876625    0.4894438088   -1.1958034039
F     4.6402106285    0.4616864920   -2.4888525009
C     5.1571202278    0.5344272256   -0.1671996713
F     6.4680342674    0.5506011248   -0.4829339385
C     4.7025175095    0.5607945919    1.1206533909
F     5.6318922043    0.6052033305    2.1115465164
C     3.3500115871    0.5425040722    1.3868502378
F     2.9256162643    0.5695046186    2.6780815125
N    -1.5496517420   -1.8750807047    0.9143865108
C    -0.5908453465   -2.8792881966    1.1688005924
H    -2.5625374317   -0.7918348312   -2.3192849159
H    -1.5920253992    0.6859320402   -2.4926004410
H    -3.4061472416    0.8375504613   -2.3761749268
H    -1.4789595604    2.3623430729   -0.7509533763
H    -2.2844667435    2.1253650188    0.8011281490
H    -3.3348193169    2.3038823605   -0.6179510951
H    -4.3852853775   -0.4745838940   -0.6559401155
H    -3.3541631699   -1.1726508141    0.5965965986
H    -4.0438575745    0.4452219605    0.8918424249
H    -1.7699503899    0.5198591352    2.1036403179
H     0.4091022313   -2.7107081413    0.7638807297
H    -0.5908551812   -3.1094648838    2.2676706314
H    -1.0080040693   -3.8289783001    0.7226867080
34

O    -0.8457084298   -0.5584123135   -1.3564088345
S    -0.9472778440   -0.2834229469    0.0551149920
C    -2.3788483143    0.6051890850    0.1292370260
C    -2.4664337635    1.6262658834   -1.0090918541
C    -2.6198847294    1.4035025835    1.3958570957
C    -3.6388547421   -0.2460279018   -0.0363890342
N    -0.6778797507   -0.5113901496    1.4955861568
I     0.5581808090   -0.1663465053    0.5267537832
C     2.4992461205    0.1964268833    0.0568840541
C     3.3047418594   -0.7971527576   -0.5080202818
F     2.7682530880   -2.0221452713   -0.7417931557
C     4.6202874184   -0.5746846795   -0.8340328336
F     5.3324470520   -1.6109997034   -1.3845008612
C     5.2052330971    0.6440677643   -0.6169251204
F     6.5022892952    0.7959206700   -0.9601634145
C     4.4322710037    1.6359162331   -0.0624204651
F     5.0205259323    2.8397784233    0.1488907486
C     3.0935156345    1.4222356081    0.2734540403
F     2.3485445976    2.4053397179    0.8166583180
N    -1.7376581430   -2.1601402760    0.1691788733
C    -0.6118681431   -3.0394673347    0.0886177421
H    -3.5315403938    1.9959565401   -0.9514920712
H    -2.3438403606    1.1645468473   -2.0004343987
H    -1.8454481363    2.5094070435   -0.8192266226
H    -1.6589404345    1.8788005114    1.6761248112
H    -2.9654607773    0.7085707784    2.2049622536
H    -3.4250481129    2.1458325386    1.2024663687
H    -3.7491128445   -0.4875075519   -1.1123911142
H    -3.4420673847   -1.2028681040    0.5022539496
H    -4.5192155838    0.2517656386    0.4006874859
H    -1.3012548685   -0.5962741971    2.2968304157
H     0.3341907859   -2.6157212257    0.4504719675
H    -0.8481698036   -3.8648965359    0.8042901754
H    -0.4652147293   -3.4920651913   -0.8981539607
34

O    -2.2961533070    1.5101382732   -1.6493425369
S    -1.1944153309    0.8818430305    0.0885009691
C    -1.7248975039   -0.5330168605   -0.4561962783
C    -1.1794940233   -0.9327259660   -1.8196482658
C    -3.2391457558   -0.7785550356   -0.5885687470
C    -1.2838517427   -1.6607016325    0.4955984950
N    -0.7048712373    2.1871271133   -0.0591389835
I     0.2463578135    0.8768672347   -0.2043841481
C     2.1686921120    0.2851523757   -0.1596028358
C     3.2059674263    1.1666791439    0.1715233922
F     2.9439146519    2.4721782207    0.4785076976
C     4.5236301422    0.7613959908    0.2022987604
F     5.5011587143    1.6439324617    0.5275856256
C     4.8838348389   -0.5283631086   -0.0906637609
F     6.1701560020   -0.9184288979   -0.0592017733
C     3.8871009350   -1.4124019146   -0.4182952344
F     4.2357687950   -2.7017147541   -0.7123181224
C     2.5610699654   -1.0196330547   -0.4531228542
F     1.6603740454   -1.9776593447   -0.7898795605
N    -2.4613969326    1.1751405001    1.1094059944
C    -2.3338704109    1.8685628176    2.3527965546
H    -1.0111627579   -2.0342140198   -1.8778569698
H    -0.2104966789   -0.4713214338   -2.0219035149
H    -1.9289456606   -0.7224387527   -2.6227560043
H    -3.6785674095   -0.4865311980    0.3827329874
H    -3.4126696587   -1.8518385887   -0.7553335428
H    -3.6753375530   -0.1517851949   -1.3975881338
H    -2.0658223629   -1.7257000208    1.2992426157
H    -1.2698687315   -2.5944724083   -0.0643694475
H    -0.3097181022   -1.4170713425    0.9659630656
H    -1.0437943935    3.1482582092    0.0176415164
H    -3.3070371151    1.7188396454    2.9046413898
H    -1.5772870779    1.2953579426    2.9471681118
H    -2.0792214870    2.9271006584    2.2565636635
34

O    -0.3430200219   -0.7986074090    0.9730518460
S    -0.8939062953    0.2490490526    0.2526728213
C    -2.3738031387   -0.7061821222   -0.3660028577
C    -2.9313044548   -1.4790712595    0.8109087348
C    -1.8914340734   -1.6854617596   -1.3801290989
C    -3.3704080582    0.3027732372   -0.8774960637
N    -0.7668904662    0.8059733510   -1.3545567989
I     0.5438525081   -0.1246789843   -1.1494113207
C     2.5089006424   -0.1358377188   -0.5163843632
C     3.0393543243   -1.2751636505    0.0811560154
F     2.2467789650   -2.3766446114    0.2410997450
C     4.3469810486   -1.3256179094    0.5185632706
F     4.7825522423   -2.4627165794    1.0849058628
C     5.1890711784   -0.2389429063    0.3800304234
F     6.4600281715   -0.3565018475    0.8308981061
C     4.6847333908    0.8949432969   -0.2071095407
F     5.5150761604    1.9510729313   -0.3379285038
C     3.3654766083    0.9516993165   -0.6506043077
F     2.8731491566    2.0833561420   -1.2330580950
N    -1.0732289553    1.4610278606    0.9071536064
C    -1.2089730501    2.7660131454    1.3889105320
H    -3.6603720188   -0.8860886693    1.3927856684
H    -2.0492339134   -1.7159751654    1.4504097700
H    -3.3145790100   -2.4377553463    0.4266433120
H    -0.8784676194   -2.0375313759   -1.0260246992
H    -1.8119312525   -1.2999274731   -2.4030730724
H    -2.5332956314   -2.6097562313   -1.3138098717
H    -3.2926876545    1.2565255165   -0.3123894632
H    -3.3250215054    0.4646882713   -1.9743781090
H    -4.3821606636   -0.1037623957   -0.6581223607
H    -1.4689787626    1.4361826181   -1.7362842560
H    -0.4520805478    3.4869887829    1.0530830622
H    -2.2034120560    3.1603605747    1.0255203247
H    -1.3307648897    2.7855696678    2.5088675022
34

O    -0.4097266197    1.0633078814    0.9885188937
S    -0.9274234772    0.8672482967   -0.2049229294
C    -1.8299599886   -0.6082673669   -0.0196624268
C    -0.9417453408   -1.7667357922   -0.3510095179
C    -3.0458130836   -0.6327595115   -0.9432471395
C    -2.3565034866   -0.7785197496    1.3891758919
N    -0.7542750835    0.5924884677   -1.8032217026
I     0.6813368797    0.8729545474   -1.1238893270
C     2.4668176174    0.1921588629   -0.4048367143
C     2.6388804913   -0.4095386565    0.8316795826
F     1.5820468664   -0.5682398081    1.6288242340
C     3.8731586933   -0.8528923988    1.2694609165
F     4.0207738876   -1.4371418953    2.4784214497
C     4.9952239990   -0.7139135599    0.4872952402
F     6.2226390839   -1.1325651407    0.8743129969
C     4.8517379761   -0.1220329776   -0.7400560975
F     5.9177732468    0.0502526201   -1.5706622601
C     3.6278131008    0.3199128211   -1.1791874170
F     3.5233671665    0.9024223089   -2.4028475285
N    -1.9605609179    2.1874735355   -0.4713030159
C    -2.6237871647    2.8960766792    0.5822518468
H    -0.1459599584   -1.5480308533   -1.0679830313
H    -1.6253848076   -2.5951161385   -0.6782573462
H    -0.4368610382   -2.0483999252    0.6180676222
H    -2.9064702988   -1.4248703718   -1.7349653244
H    -3.2469038963    0.3407051265   -1.4108549356
H    -3.9750089645   -0.9277877212   -0.4122909904
H    -2.6986160278    0.1878980249    1.8294415474
H    -3.1884453297   -1.4801142216    1.3763115406
H    -1.5190695524   -1.2155230045    1.9865192175
H    -1.5038702488    0.4669737816   -2.4750559330
H    -2.8402111530    3.9480247498    0.2761781514
H    -3.5439207554    2.4136857986    0.9264411926
H    -1.9210523367    2.9608657360    1.4513533115
34

O    -1.7063341141    1.5296940804    1.7423415184
S    -0.9061923027    0.2347626090    0.6281886697
C    -2.3388311863   -0.6671143174    0.1607421935
C    -3.4083964825    0.2904911041   -0.3865363300
C    -2.9924027920   -1.4228264093    1.2589071989
C    -1.9089634418   -1.4934591055   -0.9906236529
N    -0.5382608771   -0.4855796099    1.8469855785
I     0.6321558952   -0.1590778977    0.7992541790
C     2.5247187614   -0.1022827029    0.0816720799
C     3.2463078499    1.0703970194   -0.0462504104
F     2.7045807838    2.2720713615    0.3132814765
C     4.5380721092    1.1048694849   -0.5365744233
F     5.2154707909    2.2808589935   -0.6471545100
C     5.1612772942   -0.0694751441   -0.9238580465
F     6.4242134094   -0.0815457180   -1.4090430737
C     4.4666242599   -1.2562100887   -0.8080292344
F     5.0883731842   -2.3995397091   -1.1908284426
C     3.1826441288   -1.2711551189   -0.3182136118
F     2.5201535225   -2.4382462502   -0.2122058719
N    -0.8610488176    1.1897188425   -0.4661154151
C    -0.8869313002    2.5559158325   -0.8192259669
H    -3.1981849670    0.5995602012   -1.4191981554
H    -3.5876936913    1.1141005754    0.3283553421
H    -4.3488287926   -0.3071238995   -0.4057643712
H    -2.4075722694   -2.3370234966    1.4642393589
H    -3.9910793304   -1.7075725794    0.9341744781
H    -3.1039388180   -0.7571328878    2.1390662193
H    -0.8950232267   -1.9288599491   -0.8844980597
H    -2.6223747730   -2.3398792744   -1.1084247828
H    -1.9959676266   -0.9024817944   -1.9480942488
H    -1.1163231134   -0.9379230142    2.5595903397
H    -1.4676517248    3.1515688896   -0.0554358736
H     0.0904924721    3.0233380795   -1.0054010153
H    -1.5130844116    2.6471617222   -1.7435460091
34

O    -0.0469314046   -0.0869435966   -1.4953827858
S    -0.7447704673   -0.2932492793   -0.2745442390
C    -2.2358856201    0.5020490289   -0.5659201145
C    -3.3894493580   -0.3479287624   -0.0194891393
C    -2.5692701340    0.6897186637   -2.0405459404
C    -2.3841741085    1.8613117933    0.0745579526
N    -0.6994217038   -0.0207492132    1.2891893387
I     0.5527972579    0.7883574963    0.6551774144
C     2.5903286934    0.5896623135    0.3637177050
C     3.1021759510   -0.6469028592   -0.0300758202
F     2.2683222294   -1.6885635853   -0.2142002881
C     4.4408993721   -0.8537455797   -0.2421493977
F     4.8917856216   -2.0773906708   -0.6253235936
C     5.2848386765    0.2266652286   -0.0487275757
F     6.6079916954    0.0177318845   -0.2595636845
C     4.7796020508    1.4562463760    0.3424019516
F     5.6480746269    2.4842629433    0.5188038349
C     3.4410498142    1.6542135477    0.5520587564
F     2.9409537315    2.8573374748    0.9354772568
N    -0.7555953860   -1.8789480925   -0.1505567431
C    -1.3825775385   -2.7949588299    0.7405499220
H    -4.3429226875    0.0679915398   -0.4599028826
H    -3.4534108639   -0.3227388263    1.0746408701
H    -3.2574977875   -1.3547494411   -0.4542619586
H    -2.6783382893   -0.3395026326   -2.4728565216
H    -1.6588250399    1.1415876150   -2.5265843868
H    -3.4503645897    1.3194509745   -2.1324791908
H    -3.2648630142    2.3486692905   -0.3600051403
H    -2.5882847309    1.7400308847    1.1750359535
H    -1.5060013533    2.5182337761   -0.0560731515
H    -1.4710139036   -0.3102844954    1.8935035467
H    -1.8377555609   -2.3259475231    1.6364233494
H    -2.1981182098   -3.3851325512    0.2633953393
H    -0.6333482265   -3.5357849598    1.0930939913
34

O    -0.5041521788   -0.3047655523   -1.1337817907
S    -1.0089664459   -0.3125799596    0.2316722125
C    -2.4078021049    0.6714075208    0.0858041272
C    -3.4598181248   -0.1708337367   -0.6510285139
C    -2.1271615028    1.8301950693   -0.8867990971
C    -2.9536769390    1.2984900475    1.3049544096
N    -0.7880600691   -0.2852796018    1.6944828033
I     0.5183190107    0.2525817454    0.9278183579
C     2.4587903023    0.2212480009    0.2555512488
C     3.0490875244    1.4076024294   -0.1910618693
F     2.3182106018    2.5585861206   -0.1685287952
C     4.3419647217    1.4572417736   -0.6531999707
F     4.8802566528    2.6243212223   -1.0776953697
C     5.0848989487    0.2954945564   -0.6777724624
F     6.3715133667    0.3713686168   -1.1430321932
C     4.5312929153   -0.8835372925   -0.2454760075
F     5.2757701874   -2.0133886337   -0.2770372927
C     3.2444484234   -0.9039224982    0.2086346298
F     2.7366292477   -2.0836150646    0.6250993609
N    -1.4768817425   -1.9774153233    0.1922198534
C    -0.6735358238   -3.0370328426   -0.2574923038
H    -4.4595980644    0.2296695709   -0.4020519853
H    -3.3459854126   -1.2255699635   -0.3078295588
H    -3.2658882141   -0.1488151848   -1.7453180552
H    -2.9404978752    1.9995014668   -1.5921375751
H    -1.2139643431    1.5533542633   -1.4868609905
H    -1.7961317301    2.7382740974   -0.3268409669
H    -4.0614085197    1.4756715298    1.1714329720
H    -2.8602111340    0.7750447989    2.2483739853
H    -2.5039470196    2.3146846294    1.4746563435
H    -1.3644803762   -0.5899773836    2.4666001797
H     0.3754127324   -2.8257663250   -0.4532068670
H    -0.8178613186   -3.8873684406    0.4686577022
H    -1.1565654278   -3.4248692989   -1.2025057077
34

O    -0.3126141131   -0.5416783690   -0.9345920086
S    -0.8365241885   -0.1036123261    0.3058713675
C    -2.2686917782    0.6589626670   -0.1083137244
C    -2.7635543346    1.7910971642    0.7657037377
C    -3.3825693130   -0.3350200057   -0.1750419736
C    -2.2045543194    1.2837657928   -1.5118353367
N    -0.5339996219    0.5848142505    1.6834319830
I     0.6627585888    0.9489080310    0.6496701241
C     2.6241409779    0.4373202920    0.2189079970
C     3.6197261810    1.3761090040    0.4012120962
F     3.3224041462    2.6333911419    0.8612369895
C     4.9164910316    1.0006200075    0.1039118767
F     5.9391498566    1.8976527452    0.2686782777
C     5.2534465790   -0.2466097325   -0.3579961061
F     6.5376439095   -0.6093552709   -0.6493690610
C     4.2513427734   -1.1619633436   -0.5315963626
F     4.5503501892   -2.4038093090   -0.9866756201
C     2.9350078106   -0.8377767801   -0.2488700897
F     1.9549533129   -1.7507842779   -0.4246136248
N    -1.0064750910   -1.6008328199    1.0648106337
C    -1.3108092546   -2.8415565491    0.4733555913
H    -3.1797523499    1.4047712088    1.7198493481
H    -3.5680248737    2.3199853897    0.2098561078
H    -1.9262233973    2.4738397598    0.9648495913
H    -3.9285697937   -0.4149324298    0.7868324518
H    -3.0845451355   -1.3431437016   -0.4872610569
H    -4.1686954498   -0.0255066939   -0.9253304601
H    -2.1980428696    0.5203932524   -2.2968683243
H    -3.1453418732    1.8850206137   -1.6278417110
H    -1.3551501036    1.9818239212   -1.5186138153
H    -1.2633308172    0.7027512193    2.3977236748
H    -2.2974011898   -3.1594922543    0.8693572283
H    -1.2270594835   -2.8700461388   -0.6271451712
H    -0.6054853797   -3.6551063061    0.8178603053
34

O    -0.7656770349    1.8191648722   -1.2821269035
S    -0.7545370460    0.4691864550    0.1822230667
C    -2.3236422539    0.2324247807    0.4592016339
C    -2.7210245132    0.4715384841    1.9234970808
C    -2.8142652512   -1.1657346487    0.1355471760
C    -3.2217860222    1.1868284941   -0.3354165256
N    -0.4605227113    1.6893876791    1.0172840357
I     0.6635785699    0.5194381475    1.0796738863
C     2.5907709599    0.0075127422    0.5210433006
C     2.9758479595    0.0523910150   -0.8151587844
F     2.0855691433    0.4305771887   -1.7361453772
C     4.2442483902   -0.2786595523   -1.2315143347
F     4.5690674782   -0.2160761058   -2.5644044876
C     5.1811366081   -0.6726643443   -0.2952276170
F     6.4348521233   -0.9974923730   -0.7267253995
C     4.8403153419   -0.7326721549    1.0562087297
F     5.7700972557   -1.1222721338    1.9735833406
C     3.5399415493   -0.3884951174    1.4433072805
F     3.2452919483   -0.4586526155    2.7639050484
N    -0.3810690045   -0.5004015565   -0.8358208537
C    -0.8792980909   -0.9369653463   -2.0774123669
H    -3.8211264610    0.2277757823    1.9438762665
H    -2.6401786804    1.5284656286    2.1989507675
H    -2.2428405285   -0.2281742096    2.6128375530
H    -2.0065047741   -1.8635486364    0.3853067458
H    -3.1701340675   -1.2418624163   -0.9121510386
H    -3.7023396492   -1.4154239893    0.7691934109
H    -3.5626966953    2.0466976166    0.2806942165
H    -2.7017538548    1.6310796738   -1.2021079063
H    -4.1306786537    0.6950495839   -0.7165951133
H    -1.0623914003    2.4719564915    1.2783424854
H     0.0061179195   -0.9606406689   -2.7782464027
H    -1.1583929062   -2.0050230026   -1.9747855663
H    -1.6259756088   -0.2947157025   -2.5408370495
34

O    -2.0226509571   -0.7807630301   -2.2571747303
S    -1.0813435316   -0.3837192953   -0.6501013637
C    -2.4090003967   -0.4117059708    0.5032743216
C    -3.4095036983   -1.5125566721    0.1307441443
C    -3.1817374229    0.8570671082    0.5793462396
C    -1.7984764576   -0.8355143666    1.8030109406
N    -0.7826089263   -1.8605158329   -0.5702821612
I     0.4625836313   -0.8496938944   -0.5172986388
C     2.3998217583   -0.2709121704   -0.3934486210
C     2.8813581467    0.4952440262    0.6626471281
F     2.0105752945    0.8632642031    1.6418821812
C     4.1899967194    0.8912184238    0.7545772791
F     4.5793304443    1.6366417408    1.8159748316
C     5.0809555054    0.5162387490   -0.2448404282
F     6.3653140068    0.9232893586   -0.1242984980
C     4.6446099281   -0.2379559875   -1.3005806208
F     5.5568957329   -0.5768883228   -2.2497577667
C     3.3258886337   -0.6285404563   -1.3793067932
F     2.9228138924   -1.3637487888   -2.4180026054
N    -1.0040075779    0.9684958458   -1.0029078722
C    -0.4047241807    2.1804301739   -0.5200777054
H    -3.5584714413   -1.6052849293   -0.9523796439
H    -4.3437891006   -1.2675727606    0.6802497506
H    -3.0809893608   -2.4917757511    0.5882774591
H    -2.9063527584    1.4831433296    1.4362199306
H    -4.2958722115    0.6932761073    0.6137830615
H    -3.0245130062    1.4369096756   -0.3568901420
H    -2.5937607288   -1.1856663227    2.4970529079
H    -1.0765770674   -1.6407359838    1.6124992371
H    -1.2817641497    0.0508866906    2.2701926231
H    -1.3702547550   -2.6874485016   -0.5169966221
H     0.7053523064    2.1390140057   -0.5068387389
H    -0.6779845357    2.9533340931   -1.2653636932
H    -0.8211139441    2.5025453568    0.4519087672
34

O    -0.4587803781    0.6042807102    0.9481112957
S    -0.9666358232    0.0767003074   -0.2786599100
C    -2.4208228588   -0.6267686486    0.3289967477
C    -3.3823740482   -1.0791473389   -0.7244441509
C    -3.1449701786    0.4605154097    1.1190017462
C    -2.0734767914   -1.7095531225    1.3274673223
N    -0.7368205190   -1.0856130123   -1.3366744518
I     0.5342304111   -1.1647647619   -0.3331600130
C     2.4763977528   -0.4982819557   -0.0852726102
C     3.3354082108   -0.4908540547   -1.1674921513
F     2.8851654530   -0.9197940230   -2.3631474972
C     4.6319484711   -0.0472954623   -1.0077461004
F     5.4985985756   -0.0258084480   -2.0415778160
C     5.0682864189    0.3867359161    0.2270452529
F     6.3396458626    0.8210200667    0.3809350431
C     4.2165637016    0.3836836517    1.3179665804
F     4.6303238869    0.8055278659    2.5314483643
C     2.9176015854   -0.0623608232    1.1510564089
F     2.0624666214   -0.0708723143    2.2236800194
N    -1.0566459894    1.2821005583   -1.2641959190
C    -0.5446233153    2.6209356785   -1.2394417524
H    -4.3272705078   -1.3384218216   -0.1781961918
H    -3.1153373718   -1.9786959887   -1.2744060755
H    -3.6364467144   -0.1989771724   -1.3358210325
H    -3.0784046650    1.4350311756    0.5712717772
H    -2.7186398506    0.5375728607    2.1459314823
H    -4.1997756958    0.1980669498    1.2012203932
H    -3.0121319294   -2.2699725628    1.6068718433
H    -1.3443764448   -2.4350948334    0.9403510690
H    -1.7321866751   -1.2647203207    2.2850542068
H    -1.4022977352   -1.2362904549   -2.0965390205
H     0.5664769411    2.6056904793   -1.2818335295
H    -0.9735299945    3.2342636585   -2.0604536533
H    -0.8375663757    3.0511617661   -0.2373476774
34

O    -1.7960560322    2.1215949059   -1.0352199078
S    -0.9870864749    0.4271257818   -0.2985963821
C    -2.4213349819   -0.4369044304   -0.0245614648
C    -2.4104137421   -1.8321655989   -0.6621018648
C    -3.6744587421    0.2388340533   -0.5587226152
C    -2.6645622253   -0.6797802448    1.4565770626
N    -0.8594782948    0.0984124243   -1.8129956722
I     0.4745214283    0.1137515530   -0.9187466502
C     2.4418644905   -0.1261324286   -0.4874975979
C     3.3429853916    0.9410398602   -0.4184212685
F     2.9235806465    2.2103374004   -0.6433079243
C     4.6846175194    0.7306760550   -0.1192068383
F     5.5738587379    1.7606469393   -0.0485151373
C     5.1834583282   -0.5308971405    0.1211986095
F     6.4718270302   -0.7679653764    0.4123489857
C     4.3088855743   -1.5817272663    0.0558054484
F     4.7520675659   -2.8350620270    0.2838398218
C     2.9737057686   -1.3971675634   -0.2392627597
F     2.1519830227   -2.4837520123   -0.2898695469
N    -0.7491499782    1.1349259615    0.8662708402
C    -0.2962195277    2.4066047668    1.4021078348
H    -3.0156712532   -1.8608388901   -1.5929428339
H    -2.7313947678   -2.6224443913    0.0152142011
H    -1.3512619734   -1.9983193874   -1.0021954775
H    -3.8765366077   -0.1373137981   -1.5794448853
H    -3.5504443645    1.3344740868   -0.6217932701
H    -4.5450315475   -0.0644535273    0.0599490404
H    -1.7265263796   -0.9867064953    1.9680758715
H    -3.1244525909    0.2069090158    1.9429619312
H    -3.3793320656   -1.5143828392    1.5823726654
H    -1.5384604931   -0.0545553826   -2.5506567955
H    -0.2738303244    2.2839000225    2.4888179302
H     0.7051639557    2.6866016388    1.0802899599
H    -1.0168166161    3.2147347927    1.1682288647
34

O    -0.4110790193   -0.6167442203   -1.0643442869
S    -0.8971486092    0.1292568296    0.5317530036
C    -2.2909193039    0.6253731251   -0.2256608605
C    -3.2353518009   -0.5056552291   -0.6497944593
C    -2.0999202728    1.4429183006   -1.5043530464
C    -3.1627824306    1.5049805641    0.6802173853
N    -0.4519164562    1.4345088005    0.8651314974
I     0.6035236716    0.1940256357    1.0474518538
C     2.5537457466   -0.0571132861    0.2748845220
C     3.4707996845   -0.7863377929    0.9811721444
F     3.0998330116   -1.3268363476    2.1576268673
C     4.7681207657   -0.9665068984    0.4902410507
F     5.6662654877   -1.6952093840    1.2073520422
C     5.1161160469   -0.3922789097   -0.7309744954
F     6.3772673607   -0.5614886880   -1.2186239958
C     4.1705961227    0.3485810161   -1.4399247169
F     4.5163397789    0.9143561721   -2.6449279785
C     2.8770735264    0.5243520737   -0.9436566234
F     1.9549943209    1.2550134659   -1.6493147612
N    -1.5638577938   -1.0764633417    1.4103292227
C    -0.9970974922   -2.4044005871    1.5863275528
H    -2.8371069431   -1.1105388403   -1.4698421955
H    -4.1551480293    0.0311201196   -0.9750261307
H    -3.5369930267   -1.0756094456    0.2461114973
H    -1.6785765886    0.7319797873   -2.2541725636
H    -1.5134030581    2.3476376534   -1.3460776806
H    -3.1339478493    1.6488167048   -1.8785042763
H    -2.7957947254    2.5604853630    0.5334221125
H    -4.2225785255    1.4635263681    0.4265072644
H    -2.9466164112    1.2860909700    1.7487407923
H    -0.6617829204    2.4561598301    0.9059643745
H    -1.7325868607   -3.2069058418    1.3320558071
H    -0.1341340244   -2.5796613693    0.9118078947
H    -0.7159331441   -2.5374324322    2.6581013203
34

O    -2.3073613644    1.7312685251    0.1980808228
S    -1.1585462093    0.6648702025   -0.2290135175
C    -2.3048896790   -0.6523293853   -0.3471982181
C    -3.1847763062   -0.3390604854   -1.5507451296
C    -3.1981906891   -0.7201643586    0.8754645586
C    -1.6862442493   -1.9886089563   -0.5813443661
N    -0.6989176869    1.4744157791   -1.3221042156
I     0.1286780238    0.1104182824   -0.9232099056
C     2.1535596848   -0.0684574842   -0.3573684990
C     2.5594010353   -0.4923973680    0.8663661480
F     1.6170260906   -0.8230672479    1.7873666286
C     3.9126617908   -0.5951207280    1.1962983608
F     4.3183407784   -1.0172449350    2.4147694111
C     4.8361744881   -0.2442544848    0.2170295417
F     6.1798224449   -0.3179715276    0.4637037218
C     4.4569792747    0.1896668375   -1.0345484018
F     5.3513951302    0.5349681973   -1.9987407923
C     3.1094574928    0.2769159973   -1.3200581074
F     2.7284862995    0.7029103637   -2.5490841866
N    -0.5513048172    0.6902815700    1.3989964724
C    -0.1061044559    1.8662519455    2.0418338776
H    -2.5548710823    0.0233665705   -2.4070997238
H    -3.8252890110    0.5342604518   -1.2589621544
H    -3.8044507504   -1.2100811005   -1.8356038332
H    -4.1380805969   -1.2734767199    0.6017484665
H    -3.5417191982    0.2958470881    1.1668546200
H    -2.7194685936   -1.2367031574    1.7134511471
H    -0.9547482133   -1.9127094746   -1.4140439034
H    -1.2672476768   -2.4623992443    0.3286297917
H    -2.4877026081   -2.6599829197   -0.9383078814
H    -0.7508103848    2.3625338078   -1.8684676886
H    -0.8709209561    2.1635508537    2.8162972927
H     0.8718730211    1.6838929653    2.5274758339
H    -0.1122110486    2.7086102962    1.3215340376
34

O    -0.5859314203   -0.7952176929   -1.1471124887
S    -1.0082741976   -0.4411533177    0.1507789195
C    -2.3602979183    0.6163116693   -0.1872256249
C    -2.7566552162    1.5401147604    0.8991799951
C    -3.5029308796   -0.2217921317   -0.7011283040
C    -1.9487127066    1.5184092522   -1.3615947962
N    -0.8521862030   -0.2214310318    1.6363757849
I     0.4818018377    0.0634639114    0.7926638126
C     2.4291598797    0.2662415802    0.3391117156
C     2.9130821228    1.3589283228   -0.3910103440
F     2.0519635677    2.3260915279   -0.8165340424
C     4.2503447533    1.4929125309   -0.6993114352
F     4.7060108185    2.5636556149   -1.4115990400
C     5.1695675850    0.5460143685   -0.2957583666
F     6.4845490456    0.6771066785   -0.5985388160
C     4.7226982117   -0.5289530158    0.4175247848
F     5.5993008614   -1.4858407974    0.8342906237
C     3.3876445293   -0.6741688848    0.7320974469
F     2.9869482517   -1.7591122389    1.4433917999
N    -1.7476047277   -2.0471186638    0.5265944600
C    -0.9564185739   -3.2011599541    0.3831278384
H    -3.1776654720    2.4810307026    0.4878261685
H    -1.9071929455    1.8423132896    1.5376923084
H    -3.5902123451    1.0911335945    1.5123242140
H    -3.1602613926   -0.7953771353   -1.5761334896
H    -4.3380446434    0.4282248914   -1.0335534811
H    -3.8980250359   -0.9134678841    0.0871628448
H    -1.5273321867    0.7887384295   -2.1120023727
H    -2.8077311516    2.0777342319   -1.7541112900
H    -1.1472191811    2.1662933826   -0.9466329217
H    -1.5883733034   -0.0565404780    2.3166961670
H    -0.4338674843   -3.5376524925    1.2968213558
H    -1.6633149385   -4.0266466141    0.1001837775
H    -0.2248195112   -3.1390860081   -0.4615973830
34

O    -2.3338203430    1.4452477694   -1.1285797358
S    -1.2442935705    0.5129131079   -0.7516231537
C    -2.2622973919   -0.7989826202   -0.0762497708
C    -2.6092603207   -1.7455286980   -1.1705943346
C    -3.4795241356   -0.2494942248    0.6143680215
C    -1.4844151735   -1.5400514603    1.0188373327
N    -0.6681760550    0.3475744128   -2.1216595173
I     0.1646802574   -0.4360162020   -0.9473028183
C     2.1340777874   -0.2241598070   -0.2340732217
C     3.1824445724   -0.1984217614   -1.1592831612
F     2.9118506908   -0.3087270260   -2.4746384621
C     4.4932122231   -0.0616922528   -0.7487444878
F     5.4762153625   -0.0419153385   -1.6811591387
C     4.8061275482    0.0537083708    0.5898180604
F     6.0910029411    0.1901037693    1.0274403095
C     3.7529160976    0.0263715070    1.4970921278
F     4.0412387848    0.1380127668    2.8103055954
C     2.4345169067   -0.1109224409    1.0877357721
F     1.4228461981   -0.1357480735    1.9807282686
N    -0.6337459087    1.4154386520    0.5173442960
C    -0.4649321437    2.8139820099    0.5952388644
H    -3.3086540699   -1.2664499283   -1.8687158823
H    -3.0981287956   -2.6227853298   -0.7027167678
H    -1.6785959005   -2.0710885525   -1.6770944595
H    -3.7654118538   -0.8258158565    1.4962431192
H    -4.3109645844   -0.3084112406   -0.1343184263
H    -3.3587334156    0.8264000416    0.8840021491
H    -0.5557291508   -1.9761009216    0.6479542851
H    -1.3492507935   -0.8610780239    1.8835701942
H    -2.1593379974   -2.3310601711    1.3490223885
H    -0.7087861300    0.7209438086   -3.0966711044
H    -0.8415854573    3.1567826271    1.6035199165
H     0.5686694384    3.1603317261    0.5124650598
H    -1.1641556025    3.3066389561   -0.1422609836
34

O    -0.7205910683    0.6858163476   -1.3037716150
S    -1.0828707218    0.5845981240    0.0521276668
C    -1.8389092684   -0.8389879465    0.2224714905
C    -3.3592884541   -0.6419235468    0.1257667840
C    -1.6793603897   -1.6167477369    1.5363936424
C    -1.5031273365   -1.8540246487   -0.8538861871
N    -0.8964246511    0.9785395265    1.5311772823
I     0.4601760209    1.2106881142    0.6944785118
C     2.2789461613    0.4851365983    0.0692170486
C     2.6768732071    0.5600546598   -1.2659020424
F     1.8662879467    1.1204203367   -2.2027564049
C     3.9030039310    0.0680651814   -1.6727026701
F     4.3096222878    0.1313675046   -2.9690880775
C     4.7749304771   -0.5123426318   -0.7796080112
F     5.9790716171   -1.0011478662   -1.1500177383
C     4.3895497322   -0.5912333131    0.5459023714
F     5.2625126839   -1.1695685387    1.4258513451
C     3.1762087345   -0.1025737152    0.9392029047
F     2.8480837345   -0.2065807283    2.2566864491
N    -2.3700938225    1.9305561781   -0.0860975683
C    -1.7173243761    3.2025513649   -0.3321366906
H    -3.7817866802   -1.6495580673   -0.0571338832
H    -3.5116457939    0.0674535483   -0.7018311620
H    -3.7286238670   -0.1921277642    1.0742849112
H    -2.2336661816   -2.5808706284    1.3542708158
H    -2.2381176949   -1.1428263187    2.3657038212
H    -0.6353139877   -1.8579585552    1.7425858974
H    -1.6424111128   -2.9007921219   -0.5160586238
H    -2.2296619415   -1.7449624538   -1.7098448277
H    -0.4728480875   -1.7476110458   -1.2199960947
H    -1.6000422239    0.9089118242    2.2645692825
H    -2.5079381466    3.8828220367   -0.6403676867
H    -1.0856066942    3.5250029564    0.5049340129
H    -1.0896146297    3.0098533630   -1.2444251776
34

O    -0.3896228671    0.5966132879   -0.8657567501
S    -0.8013688922    0.2220752388    0.3782849312
C    -2.2380945683   -0.6998755932    0.1315975934
C    -2.6308369637   -0.8219193816   -1.3275005817
C    -3.4381496906   -0.0784506574    0.8573648334
C    -2.1066398621   -2.1522037983    0.6071197391
N    -0.4765483439   -0.3411397636    1.8266521692
I     0.7438542843   -0.6481970549    0.8196169734
C     2.6374502182   -0.2658750415    0.1818576157
C     3.0068173409    0.9561215043   -0.3488303721
F     2.1175041199    1.9697004557   -0.4717640281
C     4.2968897820    1.1963713169   -0.7761759162
F     4.6731324196    2.3948118687   -1.3003146648
C     5.2830734253    0.2111538351   -0.6889765859
F     6.5465030670    0.4549039006   -1.1104863882
C     4.9230122566   -1.0136204958   -0.1597739607
F     5.8699245453   -2.0033657551   -0.0605768710
C     3.6307160854   -1.2448819876    0.2649790645
F     3.3359565735   -2.4584219456    0.7728876472
N    -1.1564872265    1.7584204674    1.0544594526
C    -1.6971471310    2.8461711407    0.3413105309
H    -3.7000355721   -1.0283969641   -1.4605907202
H    -1.9775750637   -1.6124169827   -1.7626645565
H    -2.3357176781    0.1538681537   -1.8040055037
H    -3.0207273960    0.7064105272    1.5229796171
H    -3.9277508259   -0.8239594698    1.4892873764
H    -4.1512866020    0.3700767457    0.1403519660
H    -1.4796595573   -2.2197356224    1.5009829998
H    -3.1305477619   -2.4814620018    0.8673273921
H    -1.7616869211   -2.8220005035   -0.2026479989
H    -1.1416918039   -0.4326999187    2.5888903141
H    -1.9544726610    3.6312189102    1.0607130527
H    -0.9388876557    3.1966390610   -0.4040016234
H    -2.6098997593    2.4840664864   -0.1957679093
34

O    -1.6760524511    0.9353301525   -2.2815630436
S    -0.9012585878    1.0793941021   -0.1803890318
C    -1.7738037109   -0.2970921695   -0.1750066429
C    -3.2815270424   -0.1996769458   -0.4359601736
C    -1.7407766581   -0.9385500550    1.2266136408
C    -1.3059134483   -1.4418275356   -1.0657550097
N     0.0043064049    1.9039494991   -0.9603665471
I     0.5132490993    0.5307388902   -0.2799603045
C     2.2117500305   -0.3705043197    0.3256586194
C     2.6790523529   -0.2515961826    1.6403851509
F     1.9268093109    0.5082804561    2.5010738373
C     3.8416838646   -0.8680472970    2.0563673973
F     4.2029843330   -0.6869567037    3.3518474102
C     4.5877504349   -1.6277257204    1.1838661432
F     5.7164931297   -2.2040190697    1.6571856737
C     4.1431341171   -1.7540924549   -0.1084407419
F     4.9051442146   -2.5133495331   -0.9474956989
C     2.9840500355   -1.1469899416   -0.5465299487
F     2.6186609268   -1.3238182068   -1.8369498253
N    -2.0184018612    2.0933642387    0.2341401279
C    -1.9906049967    3.3869640827    0.8513582945
H    -3.4123620987    0.6607879400   -1.1365908384
H    -3.7992408276    0.1148306578    0.5138290524
H    -3.6954696178   -1.1428250074   -0.8283019662
H    -2.1912086010   -0.3041879237    1.9889799356
H    -0.7317907810   -1.3198559284    1.4531811476
H    -2.4012272358   -1.8423644304    1.1143862009
H    -0.7223425508   -0.9380577207   -1.8882083893
H    -0.5369126797   -2.0733911991   -0.5433877707
H    -2.1197452545   -2.0565905571   -1.4628682137
H    -0.0488006845    2.8310806751   -1.3975926638
H    -1.3674899340    3.3982152939    1.7666155100
H    -1.6115731001    4.1699814796    0.1452591717
H    -3.0085663795    3.6886014938    1.1522778273
34

O    -0.4021723568    1.2743339539   -0.5403200984
S    -0.9930312037    0.1779424995    0.2178680450
C    -2.2461149693   -0.3860534132   -0.8346375823
C    -2.2604129314   -1.8740187883   -1.0848747492
C    -2.2316436768    0.2445265204   -2.2115681171
C    -3.6132376194   -0.0679938272   -0.2162367404
N    -0.8139878511   -1.0585820675    1.0442566872
I     0.5770860314   -0.6774860620    0.3596414328
C     2.5123631954   -0.1535567939    0.1096649617
C     3.0524017811    0.9692677855    0.7502784729
F     2.2678842545    1.7269148827    1.5572144985
C     4.3729243279    1.3337941170    0.5847955346
F     4.8281512260    2.4265239239    1.2311910391
C     5.1997089386    0.6026225686   -0.2166754454
F     6.4864692688    0.9235261083   -0.4029058516
C     4.7047734261   -0.5158615708   -0.8688415885
F     5.4948000908   -1.2685862780   -1.6739856005
C     3.3821280003   -0.8757546544   -0.6992893815
F     2.8971548080   -1.9607443810   -1.3303391933
N    -1.6493086815    1.1408998966    1.4400118589
C    -1.2651619911    1.1881948709    2.8001635075
H    -2.6652162075   -2.3827376366   -0.1617831737
H    -1.2271673679   -2.2190585136   -1.2119246721
H    -2.9248530865   -2.0601913929   -1.9310691357
H    -2.7364492416    1.2264318466   -2.1690673828
H    -2.6512138844   -0.4236061871   -2.9828593731
H    -1.1452366114    0.4808568954   -2.4119067192
H    -4.0062475204    0.8733367324   -0.6812378764
H    -4.3509435654   -0.8719434142   -0.3821317852
H    -3.4818432331    0.1640067399    0.8496831059
H    -1.5197954178   -1.5314189196    1.5808788538
H    -2.0960280895    1.6624947786    3.3682136536
H    -1.1737725735    0.1529249549    3.2384967804
H    -0.3220075965    1.7589948177    2.8792960644
34

O    -0.4115193784   -0.8553894758   -1.0886375904
S    -1.0035487413   -0.3510295451    0.1609447598
C    -2.3908090591    0.4717284143   -0.5248367786
C    -1.8578704596    1.4367736578   -1.5892034769
C    -3.2161390781    1.2635004520    0.4094875157
C    -3.2167663574   -0.5516020060   -1.3062068224
N    -0.9081218839    0.3311799467    1.4521713257
I     0.4599617124    0.5092073083    0.6294963956
C     2.4399733543    0.3678122461    0.1924397051
C     2.9384238720   -0.5291124582   -0.7347407937
F     2.1150484085   -1.3563646078   -1.3935912848
C     4.2926745415   -0.6200754046   -1.0282100439
F     4.7829623222   -1.5008105040   -1.9388024807
C     5.2057571411    0.1963108927   -0.3933731914
F     6.5325131416    0.1656525433   -0.6254355907
C     4.7135958672    1.0928108692    0.5324434638
F     5.5735216141    1.9092105627    1.1754279137
C     3.3715579510    1.1953705549    0.8350470662
F     2.9235587120    2.0777056217    1.7406764030
N    -1.4634213448   -1.8805904388    0.7375352979
C    -0.9868271351   -2.5445232391    1.8760659695
H    -1.4170634747    0.7767143846   -2.3884017467
H    -1.0181195736    1.9799938202   -1.1149898767
H    -2.6326797009    2.0821292400   -2.0142285824
H    -3.7038645744    2.0981855392   -0.1443011761
H    -2.5131618977    1.7926338911    1.1123738289
H    -3.9396040440    0.7096080184    1.0068054199
H    -4.2062983513   -0.0989754051   -1.5142019987
H    -2.7529160976   -0.8057639599   -2.2577507496
H    -3.4516463280   -1.4357155561   -0.6488246918
H    -1.5764906406    0.3505673409    2.2080574036
H    -1.6849787235   -3.3962533474    2.0690467358
H     0.0301792119   -2.9828567505    1.7743139267
H    -1.0278809071   -1.8980325460    2.7934036255
34

O    -0.5054871440   -0.9258548617   -1.1411266327
S    -1.2064416409   -0.5177325010   -0.0105225537
C    -1.7659342289    1.0097372532   -0.3170000017
C    -1.5205111504    2.0824263096    0.7387561202
C    -3.2943758965    1.0091614723   -0.4795622528
C    -1.2614179850    1.6106804609   -1.6215871572
N    -1.2447102070   -0.4646628201    1.5765956640
I     0.2482736409   -0.8544625640    1.1240508556
C     2.2146956921   -0.4757294059    0.6912811399
C     3.1800351143   -1.4581695795    0.9488611817
F     2.7749037743   -2.6495647430    1.4859269857
C     4.5021872520   -1.2923609018    0.6936281323
F     5.3887157440   -2.2962589264    0.9710701108
C     4.9535603523   -0.1148414016    0.1555586606
F     6.2842082977   -0.0056173843   -0.0781423450
C     4.0606150627    0.8793787956   -0.1170828789
F     4.4791803360    2.0459558964   -0.6460786462
C     2.7186467648    0.7005675435    0.1462046504
F     1.8496332169    1.6740410328   -0.1215232164
N    -2.4383201599   -1.7174861431    0.0025782720
C    -2.2326920033   -3.0751152039   -0.3380918801
H    -1.5951374769    3.0747058392    0.2681328654
H    -0.4979692698    1.9803669453    1.1698799133
H    -2.2986571789    2.0508189201    1.5319414139
H    -3.5668678284    0.2936515212   -1.2782695293
H    -3.5916280746    2.0424103737   -0.7538160086
H    -3.8006048203    0.7683299780    0.4572758675
H    -0.2298972011    1.1830890179   -1.7694749832
H    -1.8797057867    1.1354175806   -2.4355745316
H    -1.2879123688    2.7079038620   -1.6379085779
H    -2.0339043140   -0.1202262193    2.1152410507
H    -1.8292264938   -3.6419494152    0.5312910676
H    -3.1472365856   -3.5267252922   -0.7516447306
H    -1.4260175228   -3.1118857861   -1.1108680964
34

O    -1.8698641062    2.3325195312    0.1399172693
S    -0.9916726947    0.8037173748    0.5996816754
C    -2.3932802677   -0.1133966520    0.2898959517
C    -2.2572326660   -1.5972087383    0.3479597867
C    -3.0443530083    0.2120305896   -1.0595475435
C    -3.4222738743    0.3127715290    1.3466258049
N    -0.5788886547    1.4812719822    1.7397564650
I     0.1598552167    0.1408445686    1.1184666157
C     2.2546303272   -0.0671151951    0.7654768229
C     3.1113791466    0.9533635974    1.1898939610
F     2.5985820293    2.0586080551    1.8187391758
C     4.4749040604    0.8538126945    0.9785389304
F     5.2588829994    1.8622288704    1.4052922726
C     4.9700045586   -0.2588257194    0.3479393721
F     6.3098149300   -0.3494401276    0.1439463943
C     4.1297311783   -1.2749028206   -0.0761505663
F     4.6219983101   -2.3730480671   -0.6989811659
C     2.7596592903   -1.1807098389    0.1332169324
F     1.9337320328   -2.1751191616   -0.2813946903
N    -0.2652459443    1.1425426006   -1.0659977198
C    -0.0590461865   -0.0514736995   -1.8629118204
H    -1.3682281971   -1.9676126242    0.9029288888
H    -2.3175303936   -2.0681900978   -0.6718454361
H    -3.1333858967   -2.0495605469    0.8875939250
H    -2.4131383896    1.0376563072   -1.4977285862
H    -4.0477733612    0.6267482638   -0.9699952006
H    -2.9902410507   -0.6099724174   -1.7754856348
H    -4.0949792862    1.0967016220    0.9484518170
H    -4.0661959648   -0.5555740595    1.6168401241
H    -2.9255337715    0.6744569540    2.2548055649
H    -0.5033403635    2.2669723034    2.4260737896
H    -0.6137116551   -0.0390442535   -2.8106613159
H     1.0405031443   -0.1468808502   -2.1058030128
H    -0.2677613795   -0.9781720042   -1.2867249250
34

O    -0.2314341366    0.8793238401   -0.9124569297
S    -0.8559383154    0.0084797256    0.3077532351
C    -2.1167423725   -0.5801809430   -0.5139579177
C    -1.9453659058   -1.9031130075   -1.2617608309
C    -2.7755508423    0.3044270575   -1.5683622360
C    -3.3284075260   -0.9487074018    0.3738607168
N    -0.4954225123   -1.2058646679    1.0147943497
I     0.5678024292    0.0142152673    1.1246718168
C     2.6173722744    0.0828873441    0.6473314762
C     3.0812454224    0.3180263340   -0.6289340258
F     2.2222032547    0.5133527517   -1.6239055395
C     4.4544477463    0.3516462445   -0.8834667206
F     4.8755273819    0.5829204917   -2.1366901398
C     5.2836079597    0.1404584795    0.1939927936
F     6.6320395470    0.1717083007   -0.0465402491
C     4.8503699303   -0.0950971767    1.4706089497
F     5.7245726585   -0.2967504263    2.4948132038
C     3.5045735836   -0.1261787266    1.7101475000
F     3.0347647667   -0.3592021465    2.9725909233
N    -1.7587938309    1.2352693081    1.3503987789
C    -1.7924900055    2.5553219318    0.8373543620
H    -1.9844889641   -2.7515079975   -0.5236846209
H    -1.0147702694   -1.9315997362   -1.8501434326
H    -2.8328218460   -2.0892949104   -1.9270168543
H    -3.4924974442    0.9840411544   -1.0701751709
H    -3.2642023563   -0.2335228473   -2.3700582981
H    -1.9463177919    0.9174774885   -2.0291862488
H    -3.7584855556   -0.0140880458    0.7912406921
H    -4.0989050865   -1.3677920103   -0.2965296805
H    -3.0496361256   -1.6839876175    1.1522737741
H    -0.6265602112   -2.2469594479    0.9747531414
H    -1.0466482639    3.1681327820    1.3941997290
H    -1.6455131769    2.6149053574   -0.2581285238
H    -2.7875342369    2.9912533760    1.0902119875
34

O     0.0122917909   -1.6261599064   -0.7811053991
S    -0.9180734158   -0.1201944798   -0.7564522028
C    -1.8086044788   -0.1266629547    0.7167192698
C    -2.4479184151   -1.5114102364    0.8952252269
C    -2.9134979248    0.8541133404    0.5866956711
C    -1.0201709270    0.1099886149    1.9605160952
N    -0.6067398190    1.0069968700   -1.5977839231
I     0.4071287811    0.7791801095   -0.3412191570
C     2.4237818718    0.4765190482    0.0215847436
C     3.1905438900   -0.3730013669   -0.7546986341
F     2.6369531155   -1.0477541685   -1.7975848913
C     4.5326595306   -0.5503058434   -0.4832412302
F     5.3136167526   -1.3795769215   -1.2291721106
C     5.1342792511    0.1282739341    0.5820543170
F     6.4528503418   -0.0437014550    0.8514987230
C     4.3759293556    0.9848507643    1.3702046871
F     4.9068689346    1.6679141521    2.4151375294
C     3.0383319855    1.1288421154    1.0589354038
F     2.3052651882    1.9622988701    1.8275983334
N    -1.9814085960   -0.7702870965   -1.6618816853
C    -2.8608188629   -0.4410557151   -2.7153799534
H    -2.5961308479   -1.7532067299    1.9566644430
H    -1.7548761368   -2.2264692783    0.3953487575
H    -3.4118041992   -1.5005300045    0.3132972717
H    -2.9795911312    1.3657501936   -0.3954624236
H    -2.8012528419    1.6682045460    1.3617352247
H    -3.9083199501    0.4151023924    0.8076180220
H    -0.4170989096   -0.8007767200    2.1645960808
H    -0.3456875086    1.0105361938    1.8662005663
H    -1.7248818874    0.3674603999    2.7737524509
H    -0.8398883939    1.4957518578   -2.4909701347
H    -2.4847495556   -0.7706649899   -3.7161180973
H    -3.7874255180   -1.0144723654   -2.5273811817
H    -3.1215617657    0.6344467402   -2.6769316196
34

O    -0.8712372780    0.2624135911   -1.4549797773
S    -1.0355043411    0.2174871862   -0.0385199785
C    -2.2236011028   -1.0207014084    0.1080216095
C    -2.8902535439   -1.1786308289    1.4177983999
C    -1.5928226709   -2.2767548561   -0.3821650445
C    -3.3347952366   -0.6872911453   -0.9004338384
N    -0.7894110680    0.5123094320    1.3895581961
I     0.5154485703    0.3643083274    0.4681841433
C     2.4759402275    0.2540675104    0.0235000197
C     3.4629421234    0.1630543768    1.0111309290
F     3.0543191433    0.1503535509    2.3219616413
C     4.7858285904    0.0893590897    0.6868206263
F     5.7036919594    0.0019439515    1.7000271082
C     5.2261681557    0.0996619090   -0.6098588109
F     6.5446934700    0.0249072779   -0.8887009025
C     4.2768220901    0.1885223538   -1.6047832966
F     4.6735205650    0.2014671117   -2.8980414867
C     2.9536614418    0.2623036504   -1.2828791142
F     2.0424833298    0.3488973081   -2.2821547985
N    -2.1223945618    1.7715227604   -0.1153859198
C    -1.3799817562    2.9691233635   -0.0083406484
H    -3.2953803539   -0.1995382756    1.7615944147
H    -2.2587289810   -1.6785702705    2.1613655090
H    -3.7847039700   -1.8154795170    1.2653131485
H    -2.1972017288   -3.1838650703   -0.1747308224
H    -0.5897133350   -2.4762132168    0.0975749269
H    -1.3969570398   -2.1642706394   -1.4830145836
H    -3.9030330181    0.1370535195   -0.4203299880
H    -2.8838210106   -0.3803634644   -1.8649573326
H    -4.0035223961   -1.5636321306   -1.0277986526
H    -1.4423427582    0.5483027101    2.1695261002
H    -1.9106974602    3.5929508209    0.7689034343
H    -0.3373126686    2.8684999943    0.3047607243
H    -1.4721032381    3.5968008041   -0.9345940351
34

O    -1.0839319229   -0.5746589899   -1.7521115541
S    -0.9710338712   -0.0190046784   -0.4918118715
C    -2.3988881111   -0.6500750184    0.3188488483
C    -3.4460504055    0.4203608930    0.5148103833
C    -1.9804992676   -1.1094247103    1.7114323378
C    -3.0441250801   -1.7981826067   -0.3653101027
N    -0.6829622984    1.0053259134    0.5951055884
I     0.4972874820    0.1507736742   -0.1352582276
C     2.4836890697   -0.0782355741    0.0530356020
C     3.2593040466    0.7641885877    0.8597453237
F     2.6194808483    1.7663285732    1.5295857191
C     4.6012792587    0.6257777810    0.9997733235
F     5.2857761383    1.4942753315    1.8100533485
C     5.2576069832   -0.3715520799    0.3367978036
F     6.6024160385   -0.4699013233    0.5088691711
C     4.5561995506   -1.2274632454   -0.4667583406
F     5.2335615158   -2.1992752552   -1.1058077812
C     3.1899809837   -1.0845193863   -0.6077148914
F     2.5628643036   -1.9688426256   -1.4198285341
N    -1.8709763288    1.6158175468   -1.3293275833
C    -0.8509301543    2.2738811970   -2.0705287457
H    -3.0330529213    1.4475841522    0.2913746834
H    -3.8468575478    0.4225455523    1.5488218069
H    -4.2664632797    0.2952905893   -0.2348970920
H    -2.8780763149   -1.6344188452    2.1472735405
H    -1.7759552002   -0.2281891853    2.3349959850
H    -1.1165920496   -1.8161269426    1.6281369925
H    -3.6096508503   -2.3924541473    0.3772435188
H    -3.8384590149   -1.3858703375   -1.0544095039
H    -2.3652369976   -2.4234950542   -0.9652521014
H    -1.2094908953    1.5790792704    1.2530015707
H    -0.9687918425    3.3747200966   -1.8584229946
H     0.1755318493    2.0345780849   -1.8111686707
H    -1.0869542360    2.1611630917   -3.1502974033
34

O    -0.4864953756    1.5033937693    0.3998438716
S    -0.9659485817    0.2193490714   -0.5981706381
C    -2.1787960529   -0.7158699036    0.2605350912
C    -1.5776925087   -1.5132415295    1.4005728960
C    -2.7929224968   -1.6488384008   -0.7204163074
C    -3.2497546673    0.2042921633    0.8400927782
N    -0.3068158329   -0.2563969195   -1.7982016802
I     0.4054457247   -0.6274515986   -0.3619252741
C     2.3642466068   -0.1744767278    0.3330850303
C     2.5892977715    0.6946034431    1.3584047556
F     1.5693047047    1.2960752249    1.9654544592
C     3.8763761520    0.9608806372    1.7787858248
F     4.1460409164    1.8159139156    2.7917709351
C     4.9052872658    0.3201781213    1.1270967722
F     6.1876373291    0.5545673370    1.5101339817
C     4.7172560692   -0.5644979477    0.0869518295
F     5.7584967613   -1.1745218039   -0.5281438231
C     3.4106099606   -0.8025878072   -0.3025104105
F     3.1919453144   -1.6726350784   -1.3283786774
N    -1.9736462831    1.1975513697   -1.3726482391
C    -1.5467462540    2.3342077732   -2.1410870552
H    -1.4167267084   -2.5714123249    1.1109763384
H    -2.2743632793   -1.5222601891    2.2547824383
H    -0.6405910254   -1.0061489344    1.7013373375
H    -3.2408771515   -2.5295400620   -0.1961991042
H    -2.0115215778   -2.0566694736   -1.4150222540
H    -3.6160478592   -1.1849937439   -1.2970067263
H    -3.6382858753    0.8546305895    0.0504093394
H    -4.0544104576   -0.4658695459    1.2130959034
H    -2.8150410652    0.7858952880    1.6618689299
H    -0.1946617067   -0.1717522591   -2.8339197636
H    -1.3454622030    3.2158269882   -1.4825953245
H    -0.5380754471    2.0669872761   -2.5427920818
H    -2.2570617199    2.6348116398   -2.9261810780
34

O    -0.5625787377    0.4045462012   -1.1115505695
S    -0.9406096339    0.4729985297    0.3436428010
C    -2.0581488609   -0.8079871535    0.2168034464
C    -1.3627694845   -2.1192748547    0.0464893654
C    -3.0149171352   -0.6662650108   -0.9606840014
C    -2.9915151596   -0.9526732564    1.4293296337
N    -0.5465580821    0.1406339854    1.7258290052
I     0.6403381824    0.8137641549    0.8188515902
C     2.5460309982    0.4629306197    0.0936055109
C     3.0155093670   -0.8375619054   -0.0284296330
F     2.2345619202   -1.8891921043    0.3245248497
C     4.2828044891   -1.1233223677   -0.5082699656
F     4.7356867790   -2.4074294567   -0.6246132255
C     5.1087985039   -0.0753971636   -0.8785905242
F     6.3655700684   -0.3081238866   -1.3568058014
C     4.6725959778    1.2421283722   -0.7703002095
F     5.4869952202    2.2821516991   -1.1357469559
C     3.3917722702    1.4931097031   -0.2835702300
F     2.9482920170    2.7617659569   -0.1701672375
N    -2.0631802082    1.8849920034    0.4567289352
C    -2.1103658676    2.7855579853   -0.6427060366
H    -2.1710243225   -2.8922462463   -0.0402067080
H    -0.7098026872   -2.4300200939    0.8630460501
H    -0.8274238706   -2.1609783173   -0.9255204797
H    -2.5547618866    0.1274042428   -1.6180301905
H    -3.9963469505   -0.2314744592   -0.6622709632
H    -3.1244993210   -1.5770024061   -1.5533907413
H    -3.9933228493   -0.5490180254    1.2474341393
H    -2.9795420170   -1.9716452360    1.8489469290
H    -2.5521364212   -0.2635620534    2.2094500065
H    -0.5644925237   -0.6638063192    2.4291152954
H    -1.6505241394    3.7444598675   -0.3201706111
H    -1.5037125349    2.4124410152   -1.4978257418
H    -3.1507236958    2.8980956078   -1.0017380714
34

O    -0.7719838619    0.0729913190   -1.5281893015
S    -1.0630102158    0.3851393461   -0.2684936821
C    -2.2421336174   -0.7441879511    0.2289196551
C    -3.5510060787   -0.1439280212    0.6867419481
C    -1.6504077911   -1.5915790796    1.3364433050
C    -2.6454699039   -1.7419625521   -0.8551862240
N    -0.8652549386    0.9878950715    1.1677701473
I     0.4994092286    0.7276465893    0.3715117276
C     2.4180619717    0.1995877028    0.0361103490
C     2.8689436913   -0.1551921666   -1.2400264740
F     1.9748727083   -0.1386822462   -2.2753210068
C     4.1915364265   -0.5170280337   -1.4599107504
F     4.5719366074   -0.8511773944   -2.7173666954
C     5.1200475693   -0.5453891754   -0.4430488944
F     6.3991065025   -0.8923581839   -0.6403805017
C     4.6805672646   -0.1954101622    0.8224623799
F     5.5638613701   -0.2090619057    1.8589115143
C     3.3679382801    0.1665064394    1.0552661419
F     2.9525573254    0.5096263885    2.3153603077
N    -2.0520970821    1.9335148335   -0.6955199838
C    -1.1532369852    3.0290730000   -0.8634353280
H    -4.1113319397    0.1661645174   -0.2036489248
H    -3.4754061699    0.6293829083    1.4466174841
H    -4.1219620705   -0.9896874428    1.1698822975
H    -1.7965264320   -1.1336250305    2.3310976028
H    -0.5393127799   -1.6803739071    1.1945878267
H    -2.0510575771   -2.6077642441    1.3320378065
H    -3.0929541588   -1.1753273010   -1.6884160042
H    -1.7955454588   -2.3875257969   -1.1327466965
H    -3.4248337746   -2.4032862186   -0.4357899427
H    -1.5360851288    1.2961280346    1.8560348749
H    -0.1762068421    2.7230386734   -1.3238018751
H    -1.6018749475    3.7626895905   -1.5582337379
H    -0.8911405206    3.5141623020    0.1197606623
34

O    -0.2294406891    0.4250522852    1.3959589005
S    -0.7630205154    0.4299888015    0.0224680956
C    -2.1104872227   -0.6083872318    0.1796053052
C    -1.6481540203   -1.8741630316    0.9222608209
C    -2.7305307388   -1.1173216105   -1.0762097836
C    -3.1696724892   -0.0003021667    1.0396397114
N    -0.5533521771    0.4374829531   -1.4312938452
I     0.7843836546   -0.0539813936   -0.6849395037
C     2.7161488533   -0.0745941028   -0.0366942212
C     3.2797937393   -1.2515449524    0.4701958299
F     2.5055770874   -2.3811304569    0.5191912055
C     4.5734610558   -1.3140908480    0.9175176024
F     5.0310912132   -2.4990606308    1.3913067579
C     5.3726472855   -0.1911420077    0.8786390424
F     6.6405839920   -0.3198545575    1.3353463411
C     4.8568043709    0.9893295169    0.3866934478
F     5.6731171608    2.0708682537    0.3647520542
C     3.5375478268    1.0481846333   -0.0681388602
F     3.0400071144    2.2274916172   -0.5536693335
N    -1.2547273636    2.0974941254    0.1362819672
C    -2.3930361271    2.6079418659   -0.5470222831
H    -1.5849049091   -1.5874072313    1.9899407625
H    -0.6779634953   -2.1725556850    0.4758769274
H    -2.4462938309   -2.6350419521    0.8220015764
H    -2.2214288712   -2.0368583202   -1.4714213610
H    -2.7513840199   -0.4193823934   -1.9241029024
H    -3.7891530991   -1.4088053703   -0.8924826384
H    -3.4337837696   -0.5990213752    1.9440081120
H    -2.9202382565    1.0077309608    1.4291048050
H    -4.1470932961    0.0999451876    0.4815348685
H    -1.1286244392    0.7880003452   -2.1855506897
H    -2.0336737633    3.3925321102   -1.2558780909
H    -2.9172132015    1.8496596813   -1.1599228382
H    -3.1069869995    3.0729429722    0.1847296357
34

O    -0.5804187655   -0.8281279802    1.1771284342
S    -1.0005075932   -0.6080137491   -0.1591349989
C    -1.9605340958    0.7216807008   -0.0736521259
C    -2.2262949944    1.5332119465   -1.3269357681
C    -1.4819059372    1.7101167440    0.9735075235
C    -3.3620648384    0.3151195049    0.4101523161
N    -0.8643144965   -0.7879905701   -1.6621387005
I     0.5584803224   -0.8907992244   -0.9160434008
C     2.3436570168   -0.1880741119   -0.2460919619
C     3.1719818115    0.6230037808   -1.0075669289
F     2.8011438847    0.9747676849   -2.2472348213
C     4.3833570480    1.0950573683   -0.5423222184
F     5.1959152222    1.8918709755   -1.2919205427
C     4.8327980042    0.7725152373    0.7306627035
F     6.0095763206    1.2312357426    1.1822954416
C     4.0214200020   -0.0330355279    1.5010291338
F     4.4392518997   -0.3668489158    2.7595944405
C     2.8073070049   -0.5062065721    1.0348376036
F     2.0760700703   -1.2877786160    1.8520236015
N    -2.1129944324   -2.1088113785   -0.1623643637
C    -1.3931981325   -3.3370835781    0.0252673663
H    -1.3295297623    1.8719907999   -1.8426930904
H    -2.8406901360    2.4110250473   -1.0072675943
H    -2.9126541615    0.9158939719   -1.9747560024
H    -1.7929571867    1.3193295002    1.9846836329
H    -2.0856997967    2.6572482586    0.8716238141
H    -0.4172213674    1.9203019142    0.8824897408
H    -3.2838971615   -0.1487062871    1.4003349543
H    -3.9751999378    1.2380046844    0.3774311244
H    -3.7064244747   -0.4526609778   -0.3151346147
H    -1.5880682468   -0.6622293591   -2.3610801697
H    -1.2450919151   -3.8708581924   -0.9335597157
H    -0.4277835190   -3.1422421932    0.5411328673
H    -2.0535078049   -3.9829068184    0.6450245380
34

O    -2.5110940933   -0.4251434803   -2.0363137722
S    -1.2618386745    0.3828258514   -1.2140169144
C    -1.4784350395   -0.7507076263    0.0748103261
C    -0.6263681650   -0.5186435580    1.2915080786
C    -1.2966876030   -2.1837465763   -0.3783232570
C    -2.9281101227   -0.6588779092    0.5824676752
N    -0.4943366647    0.3407412469   -2.4208228588
I     0.0883793533    0.9356878400   -1.0037409067
C     1.8723976612    0.3596983254    0.0006558115
C     2.6001222134   -0.7526651025   -0.4382259250
F     2.1167626381   -1.4335150719   -1.5154526234
C     3.7444665432   -1.1057806015    0.2175886929
F     4.4262886047   -2.2010173798   -0.2447384745
C     4.2254328728   -0.4136186540    1.3036241531
F     5.3778800964   -0.7878409028    1.9462082386
C     3.5127379894    0.6812436581    1.7386418581
F     3.9449434280    1.4113750458    2.8188238144
C     2.3466129303    1.0567140579    1.0853523016
F     1.6967940331    2.1262667179    1.5468866825
N    -2.3941092491    1.7152611017   -0.9056089520
C    -2.0189840794    3.0550358295   -1.1398155689
H     0.2703285217   -1.1517597437    1.2112795115
H    -1.1687511206   -0.9365824461    2.1928369999
H    -0.4692814648    0.5305059552    1.5284312963
H    -1.9553025961   -2.8750550747    0.1779514700
H    -0.2539361119   -2.5116910934   -0.1857698709
H    -1.5918196440   -2.2509026527   -1.4447406530
H    -3.0052943230   -0.0479649641    1.4938615561
H    -3.5811834335   -0.2613589466   -0.2152536958
H    -3.3260560036   -1.6609638929    0.8463885784
H    -0.2809878290   -0.0100746294   -3.3850226402
H    -2.5341851711    3.5615162849   -1.9690480232
H    -2.1331603527    3.7116887569   -0.2279947996
H    -0.9132248163    3.0693495274   -1.3324284554
34

O     0.6066229939    0.1927754879    1.4597620964
S     1.0195757151    0.4377030134    0.2094679624
C     2.2468101978   -0.7381417155   -0.1112751961
C     3.5143907070   -0.1729279160   -0.6552719474
C     1.6243057251   -1.7767499685   -1.0183817148
C     2.6684908867   -1.5151587725    1.1466934681
N     0.9164437652    0.8625795245   -1.2869890928
I    -0.5015606284    0.6284156442   -0.5792010427
C    -2.4331586361    0.1235765070   -0.2520054579
C    -2.7899596691   -1.1322386265    0.2292723507
F    -1.7936094999   -2.0241401196    0.4776319563
C    -4.0965833664   -1.4972434044    0.4590703845
F    -4.3617811203   -2.7446856499    0.9304779768
C    -5.0857362747   -0.5811824203    0.2013878822
F    -6.3843502998   -0.9535814524    0.4332375228
C    -4.7980847359    0.6751658916   -0.2749151289
F    -5.7673397064    1.5894929171   -0.5334468484
C    -3.4829716682    1.0034148693   -0.4920377433
F    -3.1360051632    2.2456889153   -0.9676569104
N     1.9512281418    1.9590187073    0.6014986634
C     1.1762983799    3.1089088917    0.8383437991
H     4.0602016449    0.3326440752    0.1517565399
H     3.4120833874    0.5389024615   -1.4904851913
H     4.0984606743   -1.0246248245   -1.0925265551
H     2.3449320793   -2.5797152519   -1.2358525991
H     1.1874815226   -1.2875783443   -1.8944967985
H     0.8136174083   -2.2572822571   -0.4086785913
H     3.6038279533   -2.0410270691    0.9386165142
H     2.8492958546   -0.7805526853    1.9797955751
H     1.8831381798   -2.2477378845    1.4158139229
H     1.5601167679    1.2617409229   -1.9547671080
H     1.4241455793    3.4768064022    1.8663417101
H     1.5758576393    3.9110863209    0.1573534608
H     0.0938150287    3.0066480637    0.7514660358
34

O    -0.2843728662    0.8833295703    1.1974215508
S    -0.8964686394   -0.2843322158    0.0137609150
C    -2.1911902428    0.7519899011   -0.2583753467
C    -3.1445641518    0.2865835428   -1.3613535166
C    -1.7906894684    2.1737635136   -0.6315881014
C    -3.1046669483    0.8894170523    0.9662618637
N    -0.4791015089   -0.2834371030   -1.3649250269
I     0.5394999981   -0.9184743166   -0.2494941354
C     2.5683078766   -0.4005935192    0.1358199269
C     3.4520530701   -0.6000302434   -0.9088140130
F     3.0403726101   -1.1012396812   -2.1171996593
C     4.7985134125   -0.2765001953   -0.7106342316
F     5.6783337593   -0.4737676680   -1.7467199564
C     5.2198700905    0.2282211483    0.5023754239
F     6.5189566612    0.5430498719    0.7012345195
C     4.3114280701    0.4230277240    1.5470731258
F     4.6913290024    0.9153655171    2.7469937801
C     2.9669306278    0.0991280153    1.3468048573
F     2.0401418209    0.2674829662    2.3260765076
N    -1.7400562763   -1.4411453009    0.8347108960
C    -1.6395003796   -2.8466959000    0.7113359571
H    -3.3211679459   -0.7914286852   -1.2169979811
H    -2.7046999931    0.4768227339   -2.3642830849
H    -4.0801930428    0.8796979189   -1.3396602869
H    -0.6734371185    2.1779642105   -0.7872757316
H    -2.0021255016    2.8895328045    0.1655485630
H    -2.2073340416    2.5067231655   -1.5866737366
H    -3.9512031078    1.5032442808    0.5982005000
H    -3.5752933025   -0.1021661162    1.2098807096
H    -2.5943052769    1.3041543961    1.8313459158
H    -0.6319547296    0.0411404744   -2.3450868130
H    -0.7380703092   -3.1757459641    1.2927688360
H    -2.5408124924   -3.3241484165    1.1782684326
H    -1.5345300436   -3.2209334373   -0.3168007135
34

O    -0.3959776759   -1.2178986073   -1.0219132900
S    -1.1324791908   -0.7265495062    0.0228860695
C    -1.8407827616    0.6780632138   -0.5571554303
C    -3.3097374439    0.8531804085   -0.1457136571
C    -1.8577133417    0.7895409465   -2.0700824261
C    -1.1399817467    1.9058312178   -0.0117094498
N    -1.2378789186   -0.3210519254    1.5546543598
I     0.2835403383   -0.7440119386    1.2184743881
C     2.1899983883   -0.1492363811    0.7382300496
C     2.6109735966    0.2966839969   -0.5043728352
F     1.6929187775    0.3450581133   -1.4827406406
C     3.9070482254    0.6800832152   -0.7551077008
F     4.2763838768    1.1107099056   -1.9876298904
C     4.8619174957    0.6359058619    0.2403135151
F     6.1397795677    1.0125150681   -0.0017606416
C     4.4741215706    0.1966895610    1.4877392054
F     5.4368896484    0.1623681337    2.4544334412
C     3.1851079464   -0.1806471050    1.7227391005
F     2.8597719669   -0.6067162752    2.9773159027
N    -2.2801361084   -2.0094654560    0.2246831656
C    -1.8258085251   -3.3468291759    0.2753622234
H    -3.4306414127    1.1409972906    0.8981874585
H    -3.9069259167   -0.0363235213   -0.4393392801
H    -3.6942279339    1.6933429241   -0.7647143602
H    -0.8210482597    0.6449025273   -2.4206285477
H    -2.3027496338    1.7477461100   -2.3999547958
H    -2.4344565868   -0.0680134967   -2.5030922890
H    -1.5601855516    2.1215593815    0.9993773103
H    -0.0535811819    1.8128894567   -0.0387343951
H    -1.4193443060    2.7549321651   -0.6857497096
H    -2.0947015285   -0.0441462137    2.0295228958
H    -2.5339567661   -3.9166579247    0.9174659848
H    -1.8131814003   -3.8215730190   -0.7304229736
H    -0.8329554200   -3.3938789368    0.7594374418
34

O    -1.8437104225    0.7856030464    2.5641901493
S    -1.0481988192   -0.1033077985    1.1131558418
C    -1.9816113710    0.7008458972    0.1558820009
C    -3.4785010815    0.7704821229    0.4235467017
C    -1.9019968510    0.2483135611   -1.3120079041
C    -1.5942419767    2.1894083023    0.0520114414
N    -0.2608189881   -0.7512614727    2.0400345325
I     0.3075844944   -0.0632086471    0.6525537372
C     2.2477080822    0.0066465894    0.0343517624
C     3.1162202358   -1.0504823923    0.2889109552
F     2.6841492653   -2.1515016556    0.9564540386
C     4.4357280731   -1.0292923450   -0.1186931878
F     5.2555284500   -2.0782756805    0.1465415806
C     4.9296422005    0.0787383318   -0.8082816601
F     6.2322568893    0.0943095908   -1.2080614567
C     4.0826058388    1.1393750906   -1.0710167885
F     4.5736322403    2.1939396858   -1.7336325645
C     2.7623353004    1.0860304832   -0.6474864483
F     1.9991102219    2.1744034290   -0.9489971399
N    -2.2702727318   -1.5509743690    1.0937186480
C    -1.7064327002   -2.7017641068    0.4933831394
H    -4.0594062805    1.0213983059   -0.4781731069
H    -3.6823196411    1.5896607637    1.1598330736
H    -3.8258337975   -0.1732182056    0.9115411639
H    -0.9760873318    0.6801682115   -1.7870585918
H    -2.7435796261    0.6081463695   -1.9117472172
H    -1.8690482378   -0.8462039828   -1.3394321203
H    -2.4037542343    2.7476801872   -0.4743776917
H    -1.4156152010    2.5678277016    1.0674595833
H    -0.6795043945    2.2144143581   -0.5853384137
H    -0.3001054227   -1.3443032503    2.8669078350
H    -0.7137939930   -2.5285706520   -0.0011654063
H    -1.4928412437   -3.4340493679    1.3022792339
H    -2.3788268566   -3.0909783840   -0.2952699065
34

O    -0.7902764082   -0.6897925138   -1.4879834652
S    -0.9900941253   -0.3384205699   -0.2242553979
C    -2.3480129242    0.7428150177   -0.2756434083
C    -2.7788934708    1.1199973822   -1.6770164967
C    -1.8686224222    2.0337884426    0.3718187809
C    -3.5608570576    0.1940213442    0.4300538301
N    -0.8693924546   -0.2893555462    1.3374210596
I     0.4825889170   -0.2375840098    0.4654265344
C     2.4702420235   -0.0093116369    0.1258396953
C     3.3592045307   -1.0823780298    0.2446030080
F     2.9216649532   -2.3258197308    0.5941467881
C     4.6950058937   -0.8642127514    0.0014591141
F     5.5575976372   -1.9011404514    0.1157055944
C     5.2118105888    0.3563930988   -0.3542882204
F     6.5288577080    0.5455867052   -0.5880352855
C     4.3365817070    1.4155029058   -0.4718171656
F     4.8133001328    2.6520459652   -0.8254408240
C     3.0067305565    1.2267837524   -0.2363128960
F     2.1682300568    2.2882909775   -0.3597031236
N    -1.9327377081   -2.0411882401    0.1141505241
C    -1.0058374405   -3.1003916264    0.0657918900
H    -2.0146079063    1.7147188187   -2.2081890106
H    -3.7558968067    1.6349843740   -1.5685675144
H    -3.0182952881    0.1581297219   -2.2029244900
H    -2.6937003136    2.7478220463    0.5488351583
H    -1.1653133631    2.4872739315   -0.3805652559
H    -1.2706520557    1.8121646643    1.2571061850
H    -4.3233327866   -0.1387234181   -0.2995029688
H    -3.3543174267   -0.6563100219    1.0883939266
H    -4.0056252480    1.0610462427    0.9785318375
H    -1.5458081961   -0.2811649144    2.0929648876
H    -0.7784842253   -3.4573667049    1.0813612938
H    -1.4394607544   -3.9117588997   -0.5898935199
H    -0.0415962040   -2.8664467335   -0.4213295281
34

O    -0.7830829620   -0.0861165375   -1.4335638285
S    -1.0106920004   -0.4313347638   -0.0664011389
C    -2.1950421333    0.7742161155    0.3444386125
C    -2.9066307545    0.5755314827    1.6330026388
C    -3.2788369656    0.6551285982   -0.7403525114
C    -1.5930958986    2.1242039204    0.1698345393
N    -0.7282094955   -0.9710091352    1.2768737078
I     0.5840248466   -0.5897271037    0.4424481690
C     2.4717233181   -0.0769945234   -0.0226476565
C     2.8234055042    1.2339539528   -0.3613766432
F     1.9024019241    2.2324874401   -0.3934527040
C     4.1191000938    1.5829977989   -0.6800178885
F     4.4718952179    2.8559494019   -1.0110630989
C     5.1296567917    0.6442893147   -0.6773862243
F     6.4067816734    0.9716291428   -0.9879905581
C     4.8088345528   -0.6551820040   -0.3469012082
F     5.8027906418   -1.5707055330   -0.3459092975
C     3.5150830746   -1.0073084831   -0.0279924143
F     3.2019214630   -2.2856144905    0.2966455221
N    -2.0013289452   -1.8962147236   -0.4701365232
C    -1.3575372696   -3.1511249542   -0.5058265924
H    -3.7710211277    1.2394516468    1.6477450132
H    -2.2813448906    0.7503781915    2.5370509624
H    -3.3239486217   -0.4721709192    1.6065877676
H    -4.2503314018    1.0106104612   -0.3582697511
H    -3.4184224606   -0.4386835098   -0.8990471363
H    -2.9282810688    1.1627483368   -1.6507390738
H    -1.5570745468    2.4592144489   -0.8907604814
H    -2.2494561672    2.8785388470    0.6950715184
H    -0.6048517227    2.2664709091    0.6111569405
H    -1.3713822365   -1.1693789959    2.0363221169
H    -0.2682996690   -3.1208589077   -0.3359647989
H    -1.7918596268   -3.7602214813    0.3415252268
H    -1.5668894053   -3.7351541519   -1.4329031706
34

O    -2.3399689198    1.2429568768   -1.3671015501
S    -1.2408568859    0.4152133167   -0.8528639674
C    -2.2090451717   -0.7536014318    0.0524045676
C    -2.4954218864   -1.8725490570   -0.9341711998
C    -3.4598050117   -0.1566507220    0.6314953566
C    -1.4569386244   -1.3614575863    1.2080001831
N    -0.6514222026    0.0455489010   -2.1919519901
I     0.1664973795   -0.5857583284   -0.9259324074
C     2.0999486446   -0.3334023058   -0.1620528698
C     2.8798363209    0.6739907861   -0.6917665601
F     2.3929309845    1.4676829576   -1.6771856546
C     4.1656236649    0.9177228808   -0.2540304661
F     4.9118242264    1.8984594345   -0.7764562368
C     4.7019896507    0.1301461458    0.7512621880
F     5.9708280563    0.3662446439    1.1873189211
C     3.9182806015   -0.8858380914    1.2869536877
F     4.4591069221   -1.6545103788    2.2770609856
C     2.6268136501   -1.1244308949    0.8415325880
F     1.8704732656   -2.0988073349    1.3528363705
N    -0.5830313563    1.5495101213    0.2191210091
C    -0.4927538335    2.9441072941    0.0351446755
H    -1.4943965673   -2.3351085186   -1.1570415497
H    -2.8817467690   -1.3954858780   -1.8623967171
H    -3.1823294163   -2.5970017910   -0.4756158888
H    -3.7846827507   -0.7583599091    1.4826329947
H    -4.2613511086   -0.2328944951   -0.1567551792
H    -3.3399968147    0.8995462656    0.9014202952
H    -0.8068909049   -2.2037928104    0.9046623111
H    -0.8697803020   -0.6581633091    1.7940454483
H    -2.2160642147   -1.8135037422    1.8793246746
H    -0.7262110114    0.2359364778   -3.2121713161
H    -0.8280688524    3.4675323963    0.9754232168
H     0.4416772723    3.3310642242   -0.3715167642
H    -1.2850680351    3.2356538773   -0.7116295099
34

O    -0.8173855543    1.0272308588   -1.1173052788
S    -1.0302199125    0.5142202973    0.1204924807
C    -2.1852333546   -0.7035704255   -0.1202000976
C    -2.6243705750   -0.9261745811   -1.5479705334
C    -3.4525616169   -0.3157101274    0.6550472975
C    -1.7920029163   -2.0761466026    0.4380768239
N    -0.7051664591    0.1287761778    1.5887557268
I     0.6002037525    0.4272418320    0.7014648318
C     2.4318482876    0.1013240516   -0.0872485042
C     3.3648304939   -0.7237953544    0.5497979522
F     2.9933447838   -1.3003169298    1.7226065397
C     4.6158781052   -0.9555243850    0.0254017748
F     5.4391288757   -1.7810237408    0.7410721183
C     5.0033564568   -0.3817946911   -1.1544169188
F     6.2507133484   -0.6582441926   -1.6057090759
C     4.1146650314    0.4331531525   -1.8069274426
F     4.5215167999    0.9898547530   -2.9736890793
C     2.8542168140    0.6739396453   -1.2901211977
F     2.0387644768    1.4887371063   -1.9945043325
N    -1.9713891745    1.9867055416    0.7599604726
C    -1.0605435371    2.9783396721    1.3051413298
H    -3.7034902573   -0.7554828525   -1.7215850353
H    -2.3958606720   -1.9370772839   -1.9175934792
H    -2.0903034210   -0.2131201327   -2.1939716339
H    -3.8357911110    0.6660993099    0.2804818749
H    -3.2702801228   -0.2469809651    1.7366795540
H    -4.2622094154   -1.0796869993    0.5026060343
H    -2.5580654144   -2.8015851974    0.1598630846
H    -0.7774187922   -2.2718729973    0.0433867089
H    -1.7269490957   -2.0033524036    1.5337235928
H    -1.3362807035   -0.0662193000    2.3613398075
H    -1.6529321671    3.8940720558    1.3803087473
H    -0.7303341031    2.7124936581    2.3293440342
H    -0.2496789098    3.1754908562    0.5956917405
34

O    -1.6642643213    0.7127723694    0.3588239551
S    -1.0604559183    0.4986667335    0.2028784156
C    -2.3002228737   -0.8900646567    0.4757388830
C    -2.7798283100   -0.8805820942    1.9238098860
C    -1.5288060904   -2.1253478527    0.1858030558
C    -3.4234001637   -0.7043194771   -0.5052393675
N    -0.3623964787    0.8207780123    1.7641980648
I     0.4442485571    0.1815162450   -0.0895600319
C     2.4612166882    0.1208159998   -0.0379849747
C     3.1659781933   -1.0677516460   -0.1818654686
F     2.4800920486   -2.2228765488   -0.3627060652
C     4.5425472260   -1.1290390491   -0.1491966844
F     5.2448697090   -2.2736322880   -0.2870448828
C     5.2264847755    0.0534078181    0.0353674702
F     6.5798764229    0.0225548223    0.0715772510
C     4.5935106277    1.2655246258    0.1846581697
F     5.2820062637    2.4177751541    0.3651751876
C     3.2193074226    1.2860156298    0.1463996470
F     2.5718450546    2.4752986431    0.2920836210
N    -1.9611357450    1.9747943878   -0.2686035037
C    -1.6736531258    2.7163209915   -1.4586378336
H    -2.3145313263    0.0382853001    2.3643763065
H    -2.5189983845   -1.8069024086    2.3686995506
H    -3.8725466728   -0.7222172022    1.8726998568
H    -2.2965497971   -2.8298926353   -0.2041230500
H    -1.1072727442   -2.5425784588    1.0970357656
H    -0.8048135042   -1.9112713337   -0.6122092605
H    -3.8260824680   -1.7314952612   -0.6306711435
H    -4.2042179108   -0.0577955395   -0.1124396548
H    -2.9719944000   -0.3927414715   -1.4643865824
H    -0.2776857615    0.0911669508    2.4633455276
H    -2.6691460609    3.1274666786   -1.7444483042
H    -0.9547467828    3.4553573132   -1.1150972843
H    -1.2392336130    2.0299901962   -2.2181231976
34

O    -0.3435827494    0.6648703218    1.4164696932
S    -1.0330420732    0.6962960362    0.1354670376
C    -1.8414235115   -0.8106888533    0.2562271953
C    -0.9534885287   -1.9570503235    0.6259984970
C    -2.7079410553   -1.2257727385   -0.8800178170
C    -2.8074812889   -0.6553750038    1.4445729256
N    -0.9588952065    0.7710044980   -1.3670021296
I     0.5122719407    0.9688680172   -0.7688230276
C     2.4198813438    0.3734611869   -0.3933837414
C     2.9955415726   -0.7039410472   -1.0772887468
F     2.2770664692   -1.3895782232   -2.0266535282
C     4.2754106522   -1.1263991594   -0.8458517790
F     4.8233680725   -2.1773803234   -1.5194388628
C     5.0681996346   -0.5052763820    0.0814432129
F     6.3355154991   -0.9099013209    0.3227853775
C     4.5278797150    0.5613375902    0.7725207210
F     5.3207950592    1.1847230196    1.7018961906
C     3.2265686989    0.9946420789    0.5405502915
F     2.7770452499    2.0563991070    1.2703714371
N    -2.0881621838    1.9669959545    0.4080131948
C    -2.3325135708    3.1133131981   -0.3669705093
H    -0.2167232186   -1.6729301214    1.3924167156
H    -0.5283371210   -2.4597864151   -0.2619157732
H    -1.6048183441   -2.7315723896    1.1177639961
H    -3.3812026978   -0.4065437019   -1.2519361973
H    -3.3834748268   -2.0207781792   -0.5157371759
H    -2.0778658390   -1.6394175291   -1.6958025694
H    -2.4802665710    0.0981335491    2.1606822014
H    -3.8090963364   -0.3047937751    1.0681133270
H    -2.9672431946   -1.5960897207    1.9729571342
H    -1.7697871923    0.7228641510   -1.9769753218
H    -1.4332718849    3.3476879597   -0.9603651166
H    -3.1684370041    2.8410196304   -1.0752969980
H    -2.6724901199    3.9316594601    0.2952097952
34

O    -0.5260798931    0.7903068066    1.1260783672
S    -0.8797933459   -0.3202773035    0.2185053676
C    -2.5479373932    0.1597703546   -0.0386612415
C    -2.6320953369    1.4193748236   -0.8747329116
C    -3.2142612934    0.4125227332    1.2838133574
C    -3.3297894001   -0.9035925865   -0.7784155011
N    -0.6835256815   -0.6160901785   -1.3564364910
I     0.2590596080    0.6925923824   -1.1209527254
C     2.2806544304    0.8701193929   -0.6320954561
C     3.2168264389    0.4780422747   -1.5705373287
F     2.8186187744   -0.0135704409   -2.7883503437
C     4.5749182701    0.5608332157   -1.3316847086
F     5.4738249779    0.1690610945   -2.2703459263
C     4.9969382286    1.0497857332   -0.1198098958
F     6.3380990028    1.1197880507    0.0872287899
C     4.0878000259    1.4479881525    0.8343704343
F     4.5848202705    1.9181855917    2.0021948814
C     2.7439048290    1.3551554680    0.5712364912
F     1.8591225147    1.7385984659    1.4897708893
N    -0.4591059685   -1.5638579130    0.8188595176
C     0.1131245121   -2.8489420414    0.7864494920
H    -2.1985397339    1.2021750212   -1.8796105385
H    -2.1613266468    2.2816729546   -0.3861156106
H    -3.7028634548    1.6195623875   -1.0485585928
H    -4.2936067581    0.1523236632    1.1762244701
H    -3.1011347771    1.4787273407    1.5954172611
H    -2.7944798470   -0.2938427031    2.0207808018
H    -2.9190886021   -1.8919069767   -0.5452109575
H    -4.3924188614   -0.7709311247   -0.5833380818
H    -3.1785635948   -0.7262618542   -1.8722124100
H    -1.1783113480   -1.4148511887   -1.7526994944
H     0.7529103160   -2.9910483360    1.6951435804
H    -0.6950281262   -3.6326794624    0.7913281322
H     0.7873272896   -2.9287335873   -0.0820691437
34

O    -2.4684083462   -0.6400082111   -2.0823740959
S    -1.2190213203   -0.4225731194   -0.8173240423
C    -1.9299834967   -0.3291426003    0.6680098176
C    -3.4343674183   -0.5999588966    0.5367373824
C    -1.8462264538    1.0391812325    1.3154747486
C    -1.4316935539   -1.3200200796    1.7219716311
N    -0.9646000862   -1.9569191933   -0.8692591786
I     0.3725973964   -1.1400115490   -1.2422939539
C     2.1205871105   -0.3796989024   -0.5051422119
C     2.2492928505    0.8500181437    0.1087382585
F     1.1677664518    1.6214582920    0.2447779477
C     3.4503412247    1.3216465712    0.5910034180
F     3.5594711304    2.5463130474    1.1983115673
C     4.6025314331    0.5712987185    0.4801940918
F     5.7776556015    1.0191941261    0.9455920458
C     4.4985232353   -0.6718688607   -0.1348014176
F     5.6318702698   -1.4143823385   -0.2458847910
C     3.3027980328   -1.1238080263   -0.6065405607
F     3.2955389023   -2.3586738110   -1.1968336105
N    -0.9061609507    0.8977596760   -1.2123399973
C    -0.8908447623    1.7526497841   -2.3533637524
H    -3.9153168201    0.3530969620    0.2109992206
H    -3.8675947189   -0.9112962484    1.5083377361
H    -3.6032154560   -1.4001346827   -0.2029490769
H    -2.7277252674    1.2106963396    1.9835307598
H    -1.8331463337    1.8021205664    0.5016399026
H    -0.9032192826    1.0665647984    1.8857384920
H    -2.2534203529   -1.8105217218    2.2701458931
H    -0.8302261829   -2.1269581318    1.2717534304
H    -0.8226264715   -0.8002470732    2.5157387257
H    -1.6397627592   -2.6888940334   -0.6054604650
H     0.1728230268    2.0349180698   -2.5491430759
H    -1.3096985817    1.3107981682   -3.2737438679
H    -1.4045379162    2.6974029541   -2.0612411499
34

O    -0.5236629844    0.0897055194    1.4078588486
S    -0.8238570094    0.5752688050    0.2319185734
C    -2.0263183117   -0.6250896454   -0.3881763518
C    -3.0870280266    0.0760895312   -1.2027331591
C    -2.7343165874   -1.2963460684    0.7522132397
C    -1.2313565016   -1.5924388170   -1.2033561468
N    -0.6196149588    1.1775484085   -1.2237918377
I     0.7371945381    0.7613964677   -0.4834969938
C     2.6628603935    0.3090151548   -0.1190524697
C     3.0640876293   -0.9513926506    0.3297179043
F     2.1687684059   -1.9478616714    0.5460880399
C     4.3896999359   -1.2509287596    0.5768072605
F     4.7687788010   -2.4723536968    1.0106092691
C     5.3707351685   -0.3111216724    0.3883279264
F     6.6820936203   -0.5528319478    0.6153067350
C     5.0109553337    0.9263896346   -0.0483891033
F     5.9247322083    1.9072041512   -0.2576661408
C     3.6913650036    1.2406438589   -0.2994968295
F     3.3208618164    2.4859077930   -0.7399002314
N    -1.8105745316    1.9929705858    0.6725382209
C    -2.7433328629    1.8851939440    1.7433167696
H    -3.2252733707    1.1152828932   -0.8791881800
H    -4.0505084991   -0.4627566934   -1.0996264219
H    -2.8132581711    0.0421773233   -2.2764499187
H    -3.8168234825   -1.0334321260    0.8217734694
H    -2.3067505360   -1.0249207020    1.7395802736
H    -2.6949801445   -2.3922557831    0.5796225667
H    -1.8548464775   -1.9180903435   -2.0848095417
H    -0.2843799591   -1.1724896431   -1.5537061691
H    -1.0854265690   -2.5261673927   -0.6012035608
H    -1.2881004810    1.4871560335   -1.9103152752
H    -3.6551537514    1.3447062969    1.4707182646
H    -2.2290189266    1.2442566156    2.5174734592
H    -2.8875498772    2.8695642948    2.2011837959
34

O    -1.8226425648   -1.9113162756    1.1718448400
S    -0.8326184154   -0.2200055569    0.4050328732
C    -2.2205240726    0.6134400964   -0.0209542010
C    -2.5471649170    1.8098310232    0.8879722357
C    -3.5159394741   -0.1962240934   -0.0369277224
C    -2.0615255833    1.1845195293   -1.4219326973
N    -0.7557569146    0.0276045203    1.8585255146
I     0.5906149149   -0.0493287630    0.9813920259
C     2.5931088924   -0.0349849761    0.6266728044
C     3.3950221539   -1.1093716621    1.0300432444
F     2.7920491695   -2.1671435833    1.6688239574
C     4.7535896301   -1.1283229589    0.8038476110
F     5.4497380257   -2.2027745247    1.2256102562
C     5.3785443306   -0.0891606435    0.1706439406
F     6.7206587791   -0.1697120070   -0.0215876531
C     4.6205415726    0.9803218246   -0.2378687561
F     5.2709794044    1.9946708679   -0.8629716039
C     3.2500534058    1.0031116009   -0.0115401791
F     2.5399796963    2.0960533619   -0.4402273595
N    -0.6429613233   -1.1395838261   -0.7561445236
C    -1.3645418882   -1.9373511076   -1.6623170376
H    -3.2780632973    2.4379591942    0.3385038972
H    -1.5892769098    2.3096060753    1.0941967964
H    -3.0011432171    1.4523459673    1.8334228992
H    -4.1121025085   -0.0380626060   -0.9471164942
H    -4.1730089188    0.0183641948    0.8214699626
H    -3.3153212070   -1.2944349051    0.0134221166
H    -2.8592138290    0.8429895043   -2.1223485470
H    -2.1113657951    2.2836050987   -1.4447889328
H    -1.0786588192    0.9230284095   -1.8612701893
H    -1.4354269505    0.3334541619    2.5528025627
H    -1.7962888479   -2.8001949787   -1.0750830173
H    -2.2073044777   -1.4761611223   -2.1750333309
H    -0.6340298653   -2.3467719555   -2.3861155510
34

O    -0.4208749235   -0.5381032228   -1.2539609671
S    -1.0189828873    0.2162473649   -0.1600067317
C    -2.3138275146   -0.9006102085    0.2303107232
C    -3.0374307632   -1.1647166014   -1.0975458622
C    -3.3273739815   -0.3571990728    1.1964824200
C    -1.6951887608   -2.1963415146    0.6481535435
N    -0.9352363348    0.8982073665    1.1467969418
I     0.4930222332    0.2558292747    0.7736850381
C     2.4648442268    0.1414989233    0.2602199316
C     3.4299244881   -0.1338343918    1.2371807098
F     3.0172121525   -0.3191254735    2.5160231590
C     4.7596130371   -0.2244466394    0.9665918350
F     5.6426057816   -0.4962838888    1.9720066786
C     5.2276310921   -0.0433174856   -0.3213332295
F     6.5510368347   -0.1455755532   -0.5230309367
C     4.3106050491    0.2282553613   -1.3053451777
F     4.7912831306    0.4027828574   -2.5638542175
C     2.9636175632    0.3191818297   -1.0264083147
F     2.0762910843    0.5894047618   -2.0202949047
N    -1.5927507877    1.5008949041   -1.0860651731
C    -1.2826391459    2.8687462807   -0.9548543096
H    -3.3327383995   -0.1522071511   -1.4653035402
H    -3.9043281078   -1.8339737654   -0.9726906419
H    -2.2889006138   -1.5909883976   -1.7916252613
H    -3.9196262360   -1.2318854332    1.5373972654
H    -3.9096777439    0.4311871231    0.7070808411
H    -2.7946026325   -0.0196893141    2.1292052269
H    -2.4152216911   -2.7283821106    1.3047170639
H    -1.5350178480   -2.8739936352   -0.2349835932
H    -0.7217227221   -2.0614781380    1.1939560175
H    -1.5919665098    1.5347105265    1.5843893290
H    -1.5002206564    3.3864326477   -1.9087352753
H    -1.9386187792    3.2662606239   -0.1262020916
H    -0.2507393956    2.9725122452   -0.5919564962
34

O    -0.4742861986    0.3183463812    1.1649868488
S    -0.8614766002   -0.0042633568   -0.5584100485
C    -2.2628605366   -0.7592823505   -0.0585953146
C    -1.9165821075   -1.9403733015    0.8609184623
C    -3.0648620129   -1.3894981146   -1.1923851967
C    -3.2555835247    0.0964169428    0.7037652135
N    -0.3689777553   -1.0408089161   -1.2901792526
I     0.5911405683    0.2740804255   -1.0748525858
C     2.5181524754    0.3830128014   -0.2268754244
C     3.4632344246   -0.5169218183   -0.7254924178
F     3.1537106037   -1.4103388786   -1.7018442154
C     4.7506937981   -0.5384503603   -0.2494833469
F     5.6534543037   -1.4152518511   -0.7422416806
C     5.0825901031    0.3669633865    0.7470054626
F     6.3409776688    0.4015907645    1.2656559944
C     4.1384196281    1.2608436346    1.2401649952
F     4.4703464508    2.1408808231    2.2123317719
C     2.8478925228    1.2725156546    0.7535206676
F     1.9304159880    2.1242582798    1.2165811062
N    -1.6739035845    1.4249631166   -1.0675162077
C    -1.2753887177    2.6401870251   -0.4128733575
H    -0.9427818656   -2.3354527950    0.4523544908
H    -2.6682465076   -2.7278995514    0.8189391494
H    -1.7528282404   -1.5014873743    1.8717219830
H    -3.1292221546   -0.7179185152   -2.0623986721
H    -4.0506019592   -1.6954778433   -0.7827742696
H    -2.5921118259   -2.3321018219   -1.5413691998
H    -3.7021427155    0.8818843961    0.0848782361
H    -4.0918135643   -0.6008331180    0.9421001077
H    -2.8603062630    0.4355022013    1.6795084476
H    -0.4871639609   -2.0093030930   -1.6593968868
H    -0.1795281172    2.7757887840   -0.3584203720
H    -1.6610723734    3.5417234898   -0.9356991649
H    -1.6692885160    2.5967047215    0.6263747215
34

O    -0.6231559515   -1.6266373396   -1.2490185499
S    -0.8486435413   -0.2053457797   -0.5525858998
C    -2.4156470299    0.3498706222   -0.3471956849
C    -3.1774809361    0.7447039485   -1.6016701460
C    -2.4079794884    1.5404053926    0.5657711029
C    -3.2498719692   -0.7148594260    0.3279748261
N    -0.4834977686    0.6172578931   -1.7896205187
I     0.5330910087    1.1212126017   -0.6158625484
C     2.5033459663    0.5464484692   -0.1404331625
C     3.1425809860   -0.4090004861   -0.9101145267
F     2.4727861881   -0.9449500442   -1.9504901171
C     4.4210000038   -0.8364176154   -0.6670693159
F     5.0484242439   -1.7805483341   -1.4301056862
C     5.1077785492   -0.3026783764    0.3806802332
F     6.3680772781   -0.7055629492    0.6424228549
C     4.4926390648    0.6530110836    1.1649154425
F     5.1964740753    1.1744658947    2.2080290318
C     3.1939418316    1.0911312103    0.9227321148
F     2.5978922844    2.0260503292    1.6933025122
N    -0.4707001150   -0.4867993295    0.8527377248
C    -0.5866230130   -1.6640317440    1.6116497517
H    -4.2485404015    0.8173148632   -1.4153283834
H    -3.0326886177   -0.1004675999   -2.3253724575
H    -2.7060654163    1.6861590147   -1.9836097956
H    -3.3690004349    1.6093268394    1.1328610182
H    -2.3441317081    2.4877998829   -0.0028115867
H    -1.5671876669    1.5247088671    1.3040469885
H    -3.1391291618   -1.6569603682   -0.2348671108
H    -3.0726523399   -0.8050028682    1.4122169018
H    -4.3251380920   -0.3933998346    0.1991471052
H    -1.0377392769    0.5950403214   -2.6531274319
H    -1.0581704378   -1.3747366667    2.5856504440
H    -1.2757959366   -2.3652215004    1.1015231609
H     0.3618076444   -2.2122871876    1.7636214495
34

O    -1.8617917299    0.6698089838   -2.2118217945
S    -0.9233111143    0.0423693061   -0.6178180575
C    -2.2743034363   -0.3865818083    0.3616177440
C    -1.8603793383   -1.6238498688    1.1380245686
C    -3.5369074345   -0.6836341619   -0.4185778201
C    -2.6578757763    0.6447911859    1.3969444036
N    -0.8348996639   -1.2583917379   -1.3829836845
I     0.5458909869   -0.6154935360   -0.8700258136
C     2.5335173607   -0.4123244584   -0.5424382687
C     3.3197944164   -1.4653766155   -0.0913856179
F     2.6833148003   -2.6571731567    0.1233535036
C     4.6632828712   -1.3513706923    0.1365680695
F     5.3702335358   -2.4153053761    0.5753139853
C     5.2914094925   -0.1417255998   -0.0848738998
F     6.6185235977    0.0363980606    0.1217014566
C     4.5436720848    0.9337188005   -0.5348117352
F     5.1214122772    2.1473641396   -0.7671349049
C     3.2014451027    0.7878872156   -0.7534885406
F     2.4728810787    1.8477885723   -1.1952842474
N    -0.6411839724    1.3623832464   -0.2536216080
C    -1.1989912987    2.6517233849   -0.2475930005
H    -1.7830018997   -2.5198471546    0.5097758174
H    -2.5423829556   -1.7215629816    2.0055160522
H    -0.8548953533   -1.3543298244    1.5768651962
H    -4.0144815445   -1.5815465450    0.0364744142
H    -3.3823726177   -0.8749809861   -1.4801588058
H    -4.2734193802    0.1558048129   -0.3395822942
H    -1.7373250723    0.9563526511    1.9578795433
H    -3.1903696060    1.5000052452    0.9810387492
H    -3.2887039185    0.1305883080    2.1569790840
H    -1.5114767551   -1.9281318188   -1.7269275188
H    -2.1483330727    2.7126071453   -0.8105163574
H    -1.3386360407    3.0146977901    0.7902143002
H    -0.5103357434    3.3973371983   -0.7271281481
34

O    -0.2732593417    0.4318620563   -1.6736434698
S    -0.8305356503    0.6474252939   -0.1111821234
C    -2.1071815491   -0.5350421071    0.2114896774
C    -3.2391884327   -0.4109251499   -0.8116549253
C    -2.7035481930   -0.1451220363    1.5309585333
C    -1.6141238213   -1.9447554350    0.2129622102
N    -0.1380234659    1.3297961950    0.9961630702
I     0.4860375822   -0.1327239275    0.5696902275
C     2.4635934830   -0.5328128338   -0.0636611357
C     2.7613093853   -1.1341588497   -1.2455489635
F     1.7730790377   -1.5000091791   -2.0650167465
C     4.1019787788   -1.3390561342   -1.5418128967
F     4.4316091537   -1.9437035322   -2.7275447845
C     5.1270623207   -0.9740275741   -0.7208117247
F     6.4038052559   -1.1980063915   -1.0608330965
C     4.8226976395   -0.3624221087    0.4811021388
F     5.7987599373    0.0269002654    1.3466832638
C     3.4799387455   -0.1505067050    0.7912856340
F     3.1993460655    0.4586808681    1.9905039072
N    -1.7442208529    1.8213683367   -0.5163635015
C    -2.0538742542    3.1491761208   -0.1733119190
H    -3.0764648914   -1.1644169092   -1.5831856728
H    -3.2262051105    0.6491925120   -1.1980564594
H    -4.2039337158   -0.5877247453   -0.3153865337
H    -3.7836627960   -0.3976398706    1.5585660934
H    -2.6320590973    0.9516351223    1.7140986919
H    -2.2523651123   -0.7261103392    2.3689904213
H    -1.7406073809   -2.3689794540    1.2483206987
H    -2.1992623806   -2.5718743801   -0.4909761846
H    -0.5656983852   -2.0950191021   -0.0463378653
H    -0.0018165439    2.2465515137    1.4793400764
H    -1.6261976957    3.8602824211   -0.9129597545
H    -3.1727752686    3.2455880642   -0.0879290104
H    -1.6642138958    3.3965783119    0.8460620046
34

O    -0.3278353214    1.3080995083   -0.2316910625
S    -0.7960686684    0.0481578596    0.3025945425
C    -2.3123319149    0.0007986950   -0.4386222661
C    -2.1013035774    0.0040705162   -1.9586118460
C    -3.0294420719    1.3118170500   -0.1244727746
C    -3.2095694542   -1.1489914656   -0.1318995059
N    -0.5453946590   -1.5145766735    0.1511318088
I     0.6445285082   -0.8265583515   -0.7201017141
C     2.6058135033   -0.1879508197   -0.4421400130
C     2.9932799339    1.1299314499   -0.5591225028
F     2.0806674957    2.0578942299   -0.8651537895
C     4.3088097572    1.5229429007   -0.3675782979
F     4.6922383308    2.8328099251   -0.4841746688
C     5.2778348923    0.6000187993   -0.0516042635
F     6.5769166946    0.9495611191    0.1430911571
C     4.8927960396   -0.7255046368    0.0669375286
F     5.8223590851   -1.6754679680    0.3793663383
C     3.5886740685   -1.1039052010   -0.1245618239
F     3.2680585384   -2.3994188309    0.0017970734
N    -0.6381402612    0.1734075397    1.8508222103
C    -1.4726456404   -0.1838922948    2.9429080486
H    -1.3712258339    0.7907661796   -2.2145154476
H    -3.0380060673    0.1843533665   -2.5029017925
H    -1.6308021545   -0.9618748426   -2.1892440319
H    -3.8052384853    1.1331932545    0.6511808634
H    -3.4450325966    1.7920757532   -1.0337014198
H    -2.3415970802    2.0682456493    0.3137201667
H    -2.8441472054   -2.0775730610   -0.6519142985
H    -3.3950355053   -1.3393235207    0.9250730872
H    -4.1924080849   -0.9326198101   -0.6128785014
H    -1.1395869255   -2.1696274281    0.6606577635
H    -2.5662429333    0.0047162538    2.7387046814
H    -1.3037663698   -1.1999844313    3.3254699707
H    -1.2461562157    0.5344092250    3.7727630138
34

O    -2.3003129959    0.8163902760    1.9823613167
S    -1.0526715517    0.9548103213    0.1458632350
C    -1.7712910175   -0.5047882795    0.0081708590
C    -3.3037571907   -0.5282195210   -0.1453042775
C    -1.4837739468   -1.5657762289    1.0527895689
C    -1.3191825151   -1.1479229927   -1.3187969923
N    -0.4549618363    1.8820170164    1.0881060362
I     0.3414532542    0.5535205007    0.5894834399
C     2.2099089622   -0.1804629862    0.4138633311
C     2.5436363220   -1.5183513165    0.6387365460
F     1.5950188637   -2.4071123600    0.9955841303
C     3.8315033913   -1.9870643616    0.5100019574
F     4.1508288383   -3.2931749821    0.7306571603
C     4.8547239304   -1.1482260227    0.1505955011
F     6.1407036781   -1.5487934351    0.0077124615
C     4.5648579597    0.1654422879   -0.0769076124
F     5.5428133011    1.0247189999   -0.4326112568
C     3.2875289917    0.6395360231    0.0488136634
F     3.0351488590    1.9636512995   -0.1875490993
N    -2.1082227230    1.8435811996   -0.6027162671
C    -2.1667406559    3.2682750225   -0.7795242071
H    -3.6860046387   -1.5287996531   -0.3479691148
H    -3.5329451561    0.1721916497   -0.9721675515
H    -3.7648501396   -0.0754788667    0.7605606914
H    -1.1683359146   -2.5283653736    0.6573109627
H    -2.3783836365   -1.7793107033    1.6983273029
H    -0.7064381838   -1.2336131334    1.7725354433
H    -1.6684360504   -0.5615103245   -2.1764833927
H    -0.2639451027   -1.4083472490   -1.2935537100
H    -1.8998389244   -2.1129357815   -1.3475342989
H    -0.6671532989    2.8261845112    1.4100060463
H    -2.9810018539    3.6028263569   -1.4207781553
H    -2.2350084782    3.7048680782    0.2552504539
H    -1.1848707199    3.6402401924   -1.1758383512
34

O    -0.2170423269   -0.9886554480   -1.0477206707
S    -0.7924873233   -0.2589391470    0.0392713398
C    -2.3086996078    0.1088774055   -0.6269091368
C    -2.2586250305    1.3667335510   -1.5082936287
C    -3.4353723526    0.2808137834    0.3877407908
C    -2.8579771519   -0.9542853236   -1.5831692219
N    -0.6700839400    1.2441878319    0.6759310365
I     0.5892884731    1.1456434727   -0.3542343378
C     2.5795030594    0.5622686148   -0.2390281707
C     3.1146686077   -0.5356387496   -0.8568367958
F     2.2961411476   -1.3048510551   -1.5999671221
C     4.4506859779   -0.8845447302   -0.7500393391
F     4.9744663239   -1.9763944149   -1.3666270971
C     5.2692637444   -0.0736940131    0.0218139775
F     6.5888524055   -0.4347037971    0.1160172895
C     4.7699861526    1.0428346395    0.6617908478
F     5.6388401985    1.7843590975    1.3989312649
C     3.4489605427    1.3471597433    0.5281579494
F     2.9946992397    2.4620299339    1.1786903143
N    -0.5962156653   -1.0711014271    1.3093487024
C    -1.2264544964   -1.5064682961    2.4657552242
H    -1.4555509090    1.1687184572   -2.2529857159
H    -1.8536736965    2.1722292900   -0.8404054046
H    -3.2198970318    1.6029062271   -1.9575246572
H    -3.1051042080    0.5942766070    1.3746771812
H    -3.9810464382   -0.6839880943    0.5427077413
H    -4.2007522583    1.0045032501   -0.0094197802
H    -3.4869134426   -1.6950668097   -1.0235054493
H    -3.5497117043   -0.5024647713   -2.3417150974
H    -2.0484571457   -1.4411225319   -2.1342494488
H    -1.2836327553    1.5097473860    1.4421232939
H    -0.5112711787   -2.1760234833    3.0258007050
H    -1.5805518627   -0.7293528318    3.1589269638
H    -2.0758364201   -2.1799943447    2.1649465561
34

O    -0.5017989278   -0.6657978892    2.2031009197
S    -0.7998111248    0.0447040834    0.6066129804
C    -2.4325816631    0.2739700675    0.3695045710
C    -2.8189761639    1.6437894106   -0.2036945522
C    -3.1425011158    0.2088744938    1.7292025089
C    -3.1470873356   -0.7260614038   -0.5266630650
N    -0.4902234674    1.4591820240    1.1620340347
I     0.4777370393    1.0825083256   -0.0892802551
C     2.4631114006    0.3945687413   -0.1905203015
C     2.8206038475   -0.8112524152    0.4004117548
F     1.9010823965   -1.5498304367    1.0425013304
C     4.1359038353   -1.2475366592    0.3224017024
F     4.5451121330   -2.4150233269    0.8790236115
C     5.0822515488   -0.4914058447   -0.3361740708
F     6.3661251068   -0.9340258837   -0.4028913379
C     4.6912894249    0.7122653127   -0.9176620245
F     5.6771669388    1.4045008421   -1.5499886274
C     3.3921129704    1.1711269617   -0.8563312292
F     3.0752320290    2.3545215130   -1.4446195364
N    -0.4880203605   -1.1163649559   -0.1339151412
C    -0.3333635628   -1.5243710279   -1.5086086988
H    -3.8650157452    1.6564371586   -0.5520239472
H    -2.0915889740    1.8797434568   -1.0156538486
H    -2.6896133423    2.4064185619    0.5825838447
H    -2.5988600254    0.8078827858    2.4994268417
H    -3.1201601028   -0.8455308080    2.0983259678
H    -4.1570439339    0.6332357526    1.6565651894
H    -4.1914515495   -0.8732404113   -0.1654100865
H    -3.2333877087   -0.3220013380   -1.5540823936
H    -2.6270766258   -1.6977127790   -0.4777410030
H    -0.9773014784    1.9353219271    1.9208252430
H     0.7122752666   -1.3633332253   -1.8469667435
H    -0.6498755813   -2.5784282684   -1.5437935591
H    -0.9842649102   -0.9071348310   -2.1564998627
34

O    -2.6220481396   -0.7649937868    1.4639303684
S    -1.3663878441    0.1584585160    0.9948528409
C    -1.4978300333   -0.4067542255   -0.6028500199
C    -2.9130167961   -0.2097638100   -1.1864219904
C    -1.2683773041   -1.8938242197   -0.5849173069
C    -0.6068794727    0.2606984675   -1.6269749403
N    -0.6284919977   -0.2356758714    2.1718766689
I     0.1010717154    0.6920435429    1.0193910599
C     1.9907250404    0.2303107083    0.1959904879
C     2.6868674755    1.2120888233   -0.5208879709
F     2.1387271881    2.4475581646   -0.6785210967
C     3.9365954399    0.9018446803   -1.0626475811
F     4.6388158798    1.8373655081   -1.7660698891
C     4.4908890724   -0.3471899629   -0.9033478498
F     5.7045402527   -0.6932342052   -1.4133738279
C     3.8058817387   -1.3123263121   -0.1982460022
F     4.3604750633   -2.5550990105   -0.0413630232
C     2.5727910995   -1.0127636194    0.3386730254
F     1.9255466461   -1.9837158918    1.0273275375
N    -2.3530724049    1.6555602551    1.1030788422
C    -2.4855823517    2.1604580879    2.4443922043
H    -3.1684703827    0.8671884537   -1.2093573809
H    -3.6153025627   -0.7007041574   -0.4902854860
H    -2.9527640343   -0.6857370138   -2.1650764942
H    -0.6648474336   -2.2021324635    0.3144173920
H    -0.7164193988   -2.1714775562   -1.4997187853
H    -2.2266292572   -2.4353568554   -0.5774033666
H    -0.6578935981    1.3452261686   -1.5419989824
H     0.4115267992   -0.1711670905   -1.6494053602
H    -1.0173499584   -0.0185596831   -2.6429154873
H    -0.4609513879   -0.9117306471    2.9566137791
H    -1.6255708933    1.8607463837    3.0710532665
H    -2.4845790863    3.2757987976    2.3508849144
H    -3.4319887161    1.8068597317    2.9093003273
34

O    -0.2943621278    0.4389654100    1.4304878712
S    -0.9189839959   -0.2018159479    0.3543967009
C    -2.4300916195    0.6261904240    0.2621583045
C    -2.8070330620    1.4096261263    1.4882966280
C    -3.5017874241   -0.4531837106    0.1053871810
C    -2.5613858700    1.5416359901   -0.9225296378
N    -0.8422027230   -0.5354850888   -1.2020876408
I     0.4130644798    0.4254964292   -0.8528711796
C     2.4390432835    0.3960601389   -0.4139954448
C     3.3389418125   -0.4183835387   -1.0737133026
F     2.8618087769   -1.2202943563   -2.0397264957
C     4.6736702919   -0.4056251347   -0.7502602339
F     5.4860076904   -1.2370836735   -1.4484509230
C     5.1831884384    0.4076059759    0.2353464812
F     6.5036263466    0.3673770726    0.4989684820
C     4.2992029190    1.2268164158    0.9038406014
F     4.8164587021    2.0251131058    1.8753117323
C     2.9476554394    1.2243276834    0.5874366164
F     2.1307086945    2.0500326157    1.2784154415
N    -0.9824997187   -1.7407590151    0.8291951418
C    -0.4463068247   -2.9438812733    0.3402875364
H    -2.5872392654    0.8875718117    2.4370028973
H    -3.8839116096    1.6377011538    1.4421157837
H    -2.2805426121    2.4047644138    1.4191963673
H    -3.9918141365   -0.6629946232    1.0930802822
H    -3.0733590126   -1.4320433140   -0.1962795407
H    -4.2445130348   -0.1998446882   -0.6794176102
H    -3.3620276451    2.2717883587   -0.7607533932
H    -1.5653837919    2.0147159100   -1.1038475037
H    -2.7294867039    0.8892820477   -1.8212807178
H    -1.5856090784   -1.0479768515   -1.6811032295
H    -0.7170451283   -2.9963233471   -0.7545403838
H     0.6392352581   -2.9265279770    0.3931119740
H    -0.9270264506   -3.8228487968    0.8266022801
34

O    -0.3889157176    0.6559160948   -1.1314020157
S    -0.8650552630   -0.3272378445    0.1279997975
C    -2.2959468365    0.4965255558    0.2726002038
C    -3.1079761982    0.4692379534   -1.0081794262
C    -2.0638768673    1.9877192974    0.5494973660
C    -3.2602715492   -0.0099829314    1.3538385630
N    -0.5440779328   -0.2551858127    1.5205848217
I     0.5669282675   -0.9125596285    0.5031523108
C     2.5376710892   -0.3677344918    0.0422456749
C     2.9301033020    0.1628423184   -1.1508386135
F     1.9969140291    0.3553502858   -2.1081483364
C     4.2380824089    0.4955762327   -1.3813115358
F     4.6662716866    1.0232238770   -2.5493345261
C     5.1940965652    0.2954659462   -0.3930428624
F     6.5046296120    0.6120694876   -0.5801857114
C     4.8257427216   -0.2443937063    0.8360049129
F     5.7366089821   -0.4548618197    1.8292849064
C     3.5097699165   -0.5637884140    1.0277671814
F     3.1704945564   -1.0949845314    2.2483940125
N    -1.6309895515   -1.7514779568   -0.5657779574
C    -1.1544091702   -2.1133642197   -1.8885153532
H    -2.5429759026    0.7170602679   -1.9070897102
H    -3.9616296291    1.1881933212   -0.8348253369
H    -3.5956737995   -0.5344704390   -1.0278329849
H    -2.9706542492    2.3770656586    1.0603512526
H    -1.9973087311    2.5453834534   -0.4185515940
H    -1.1254514456    2.1310880184    1.0972131491
H    -2.7931141853   -0.0786881074    2.3371889591
H    -4.1313428879    0.6486672163    1.4133317471
H    -3.5812892914   -1.0331391096    1.0728156567
H    -0.7615324259    0.1318968534    2.4663398266
H    -0.0688409135   -1.9022072554   -1.9177976847
H    -1.4159461260   -3.1636824608   -2.0543415546
H    -1.6200349331   -1.4855226278   -2.6756587029
34

O    -0.4076324105   -1.5999174118    0.4556631148
S    -1.0492604971   -0.7375565171   -0.4876675904
C    -1.8557212353    0.3327925205    0.5423510671
C    -2.6681847572    1.4264830351   -0.0589820333
C    -0.8867217302    0.8688848019    1.5757851601
C    -2.8421399593   -0.5189332962    1.3488312960
N    -0.9175456762    0.1952897012   -1.7096123695
I     0.5565168858   -0.3078502417   -1.2967834473
C     2.3215854168    0.0931957811   -0.3246088624
C     3.1147212982    1.1602951288   -0.7512368560
F     2.6899569035    1.9070830345   -1.8062196970
C     4.3083062172    1.4743803740   -0.1355715394
F     5.0080146790    2.5362226963   -0.6292269230
C     4.7636337280    0.7302170396    0.9404695630
F     5.9354844093    1.0571824312    1.5267821550
C     3.9895341396   -0.3363867998    1.3813185692
F     4.4625267982   -1.0357259512    2.4273481369
C     2.8064777851   -0.6243949533    0.7483946681
F     2.0783295631   -1.6711609364    1.2054457664
N    -2.0434916019   -1.8615132570   -1.2363162041
C    -1.9253304005   -2.3760695457   -2.5435914993
H    -2.0446755886    2.2334308624   -0.5091549158
H    -3.3033776283    1.8463612795    0.7687395811
H    -3.3857572079    0.9853024483   -0.7798728943
H     0.1140952408    1.0837084055    1.1556302309
H    -0.7412825823    0.1157240942    2.3969237804
H    -1.3504056931    1.7664511204    2.0576653481
H    -3.5422661304   -0.9425956011    0.5959644318
H    -2.3573474884   -1.2707281113    1.9715352058
H    -3.4338862896    0.2255491316    1.9514760971
H    -1.7318041325    0.6418105364   -2.1408460140
H    -2.1987636089   -1.5496870279   -3.2499699593
H    -0.8675850630   -2.6053555012   -2.7332806587
H    -2.5960030556   -3.2424890995   -2.6573824883
34

O    -1.7600675821    2.3188166618   -1.0340141058
S    -0.9168892503    0.7156537771   -0.4927583635
C    -2.1621589661   -0.4139738679   -0.4658242166
C    -1.8181732893   -1.7421995401   -1.1464300156
C    -3.4174253941    0.0934172794   -1.1873666048
C    -2.6395266056   -0.7940534353    0.9222542644
N    -0.5397883058    0.5417683125   -1.9879280329
I     0.7141826153    0.6298252344   -0.9962717891
C     2.4029273987    0.0418833680   -0.0513009094
C     3.2183253765    0.9431169629    0.6231240630
F     2.9007637501    2.2577316761    0.6670899391
C     4.3727016449    0.5551867485    1.2716335058
F     5.1710367203    1.4332869053    1.9311878681
C     4.7654995918   -0.7696369290    1.2727171183
F     5.8980474472   -1.1603417397    1.9070882797
C     3.9726359844   -1.6850796938    0.6097282171
F     4.3463568687   -2.9890768528    0.6027313471
C     2.8174948692   -1.2875608206   -0.0374915972
F     2.0934247971   -2.2323234081   -0.6629675627
N    -0.7726441622    1.1557906866    0.8104842901
C    -0.7336868644    2.3193230629    1.6523532867
H    -0.8960945010   -1.6093662977   -1.7502045631
H    -2.6516556740   -2.1292104721   -1.7642483711
H    -1.5842782259   -2.5217466354   -0.4032098353
H    -4.1854138374    0.4506128132   -0.4710261226
H    -3.8929917812   -0.6861019731   -1.8064087629
H    -3.1731414795    0.9395647049   -1.8555316925
H    -3.1733007431   -1.7521671057    0.9445178509
H    -1.7219996452   -0.9133915305    1.5474417210
H    -3.2082941532    0.0506010503    1.3743283749
H    -1.1285490990    0.4322680831   -2.8090114594
H    -1.1865930557    2.0002083778    2.6076114178
H     0.2880922556    2.6791479588    1.7585841417
H    -1.3988162279    3.1280262470    1.2401672602
34

O    -1.5811483860    1.6552817822    1.8509980440
S    -0.8988271952    0.2359682620    0.5994971395
C    -2.3735444546   -0.5608677268    0.2815588713
C    -3.5301861763   -0.0682649538    1.1386333704
C    -2.2697925568   -2.0655508041    0.5666610599
C    -2.8192229271   -0.4602293670   -1.1604958773
N    -0.5300447941   -0.4426092803    1.8702877760
I     0.6205149889   -0.1348613054    0.7855377793
C     2.5024468899   -0.1633737385    0.0211893041
C     2.8837964535   -1.0642563105   -0.9743250608
F     1.9554064274   -1.9480522871   -1.4404791594
C     4.1577987671   -1.0754635334   -1.4841648340
F     4.4372038841   -1.9932981730   -2.4556427002
C     5.1133012772   -0.2016873509   -1.0380526781
F     6.3504810333   -0.2624852061   -1.5800364017
C     4.7666363716    0.6936532855   -0.0613362305
F     5.7291154861    1.5645229816    0.3793042302
C     3.4919307232    0.7204118371    0.4633841813
F     3.2261493206    1.6335961819    1.4251574278
N    -0.9049770832    1.2909795046   -0.3995450437
C    -0.6303234100    2.6765279770   -0.6810244322
H    -4.2339253426    0.5775617957    0.5734116435
H    -3.1683256626    0.5365272760    2.0034494400
H    -4.1335020065   -0.8923871517    1.5697600842
H    -1.3255939484   -2.2896168232    1.1176650524
H    -2.2036943436   -2.6620678902   -0.3636706173
H    -3.1031363010   -2.4532575607    1.1478054523
H    -2.8184757233   -1.4131665230   -1.6981229782
H    -3.8330543041   -0.0231732596   -1.2640740871
H    -2.1469478607    0.2334756255   -1.6929273605
H    -1.0760354996   -0.8373408318    2.6338245869
H    -1.5587335825    3.2980201244   -0.7236636877
H    -0.0621608682    3.0666048527    0.1921794862
H    -0.0331289768    2.8288781643   -1.6027438641
34

O    -0.6944003105    1.4886246920   -1.6062446833
S    -0.8551334739    0.5458866954   -0.1265490502
C    -2.4646306038    0.2666155696    0.1854579002
C    -2.6239326000   -0.9335141182    1.0430790186
C    -3.1619522572   -0.0715660006   -1.1434895992
C    -3.2977163792    1.3739255667    0.7730495334
N    -0.6368072033    1.7764693499    0.7243189812
I     0.4472100735    0.6265673637    1.0880140066
C     2.4504702091    0.3137280047    0.5832654834
C     3.1046214104   -0.8857066631    0.7318707705
F     2.4029610157   -1.9446166754    1.2425663471
C     4.4355773926   -1.0111181736    0.3728480339
F     5.0790843964   -2.1928336620    0.5195638537
C     5.1192359924    0.0799456239   -0.1416881084
F     6.4255919456   -0.0104270922   -0.5034615993
C     4.4819173813    1.3037213087   -0.3022387922
F     5.1882910728    2.3436973095   -0.8089137673
C     3.1621751785    1.3894323111    0.0648052916
F     2.5674748421    2.6159324646   -0.1091496050
N    -0.4006646574   -0.6877572536   -0.7391064167
C    -0.2990704179   -2.0748634338   -0.5180453062
H    -2.8073647022   -1.8867261410    0.5018273592
H    -3.5254158974   -0.8431688547    1.7182928324
H    -1.7823760509   -1.0882157087    1.7655848265
H    -3.4918601513    0.8406633735   -1.6736390591
H    -3.9732601643   -0.8139398694   -1.0040100813
H    -2.4042069912   -0.5639386773   -1.8189698458
H    -3.4254426956    2.1371979713   -0.0205702037
H    -4.2654247284    0.9395506978    1.1212799549
H    -2.8575942516    1.8030742407    1.7179813385
H    -1.2335473299    2.6067426205    0.7501279712
H    -1.1154149771   -2.6632971764   -1.0285489559
H     0.6235455275   -2.4137282372   -1.0759392977
H    -0.1719400883   -2.3663578033    0.5276057124
34

O    -2.2012238503    0.3548161387    2.0457556248
S    -1.1291311979    0.6571611762    0.1806993484
C    -1.8935788870   -0.7565106750   -0.0842093304
C    -3.4115500450   -0.7835687995   -0.0915430039
C    -1.4937479496   -1.9380892515    0.8143132329
C    -1.4972594976   -1.2776758671   -1.4785448313
N    -0.4955495596    1.5511809587    1.0559924841
I     0.2694571614    0.2605853081    0.3798856735
C     2.2757582664   -0.0252397340    0.1442873925
C     2.9646928310   -0.9897149801    0.8504024744
F     2.3461074829   -1.8000690937    1.7392656803
C     4.3311281204   -1.1218377352    0.6331240535
F     5.0617895126   -2.0589513779    1.3040820360
C     5.0160398483   -0.3308444023   -0.2545284629
F     6.3546543121   -0.4506494105   -0.4761170447
C     4.3331885338    0.6347232461   -0.9631398916
F     4.9623923302    1.4442722797   -1.8538881540
C     2.9980573654    0.7682306767   -0.7548499703
F     2.3279929161    1.7315297127   -1.4645740986
N    -2.2888791561    1.6536833048   -0.4245977998
C    -2.0879149437    3.0200238228   -0.8495053649
H    -3.8652775288   -1.5572841167    0.5185192823
H    -3.8400049210   -0.7587151527   -1.1217253208
H    -3.7323951721    0.1987553835    0.3478927612
H    -0.4528689682   -2.2210459709    0.7040603757
H    -2.1492283344   -2.7785789967    0.4518367052
H    -1.8329715729   -1.7168954611    1.8462359905
H    -1.7698380947   -0.5182578564   -2.2346699238
H    -0.4395200312   -1.5767023563   -1.5221126080
H    -2.1343879700   -2.1876490116   -1.6307777166
H    -0.6538788080    2.4400389194    1.5233547688
H    -2.2468113899    3.1359951496   -1.9219748974
H    -2.6263589859    3.7549343109   -0.2162095457
H    -0.9988820553    3.2423493862   -0.6641952395
34

O    -0.4628316164   -0.2045060396   -1.3619486094
S    -1.0178539753    0.2953889966   -0.1169878095
C    -2.2460002899   -0.9141901731    0.1747094989
C    -3.3850576878   -0.5642777085   -0.7920572758
C    -2.8318381310   -0.9522454739    1.5322064161
C    -1.7214781046   -2.3144426346   -0.1518460512
N    -0.8093059659    0.8065710664    1.2821168900
I     0.5653655529    0.1803884506    0.7491919398
C     2.4859042168    0.0887772292    0.1504759192
C     3.0437109470    1.0598418713   -0.6911476254
F     2.2969496250    2.1060252190   -1.1347624063
C     4.3599057198    0.9958893061   -1.1006165743
F     4.8534302711    1.9496158361   -1.9085451365
C     5.1726112366   -0.0394583419   -0.6869096756
F     6.4736618996   -0.1396293938   -1.0669198036
C     4.6515517235   -1.0111676455    0.1425151974
F     5.4191036224   -2.0461356640    0.5715049505
C     3.3356611729   -0.9498840570    0.5536687374
F     2.8095126152   -1.9036155939    1.3727959394
N    -1.6869516373    1.6890608072   -0.7003508210
C    -1.3237962723    3.0264530182   -0.5168236494
H    -3.8525164127    0.3686539233   -0.4209148288
H    -4.1230120659   -1.3891097307   -0.7638004422
H    -2.9455530643   -0.4087676406   -1.7831883430
H    -3.6263771057   -0.2258924395    1.7055609226
H    -1.9877512455   -0.8721264005    2.2779448032
H    -3.2623481750   -1.9649262428    1.6846858263
H    -2.5977745056   -2.8720955849   -0.5781227946
H    -0.9112774134   -2.2793276310   -0.8972481489
H    -1.4100463390   -2.8730742931    0.7498700023
H    -1.5442994833    1.0848993063    1.9151790142
H    -2.2421290874    3.6628522873   -0.5793901682
H    -0.8881742954    3.1937968731    0.5007033944
H    -0.5909954906    3.4166586399   -1.2502397299
34

O    -1.7177140713   -2.3564474583    0.2344741672
S    -0.9453136921   -0.6688153148   -0.0878874734
C    -2.4067432880    0.2663734257   -0.3838893473
C    -1.9938075542    1.6802432537   -0.3074851930
C    -3.4206330776    0.0205422118    0.7432793379
C    -3.1187851429   -0.0830265358   -1.6457600594
N    -0.6536198854   -1.1424218416   -1.4360370636
I     0.5452597141   -0.4990639985   -0.5900660753
C     2.4856569767   -0.0312712118   -0.2999713123
C     3.3963859081    0.0146292606   -1.3632903099
F     2.9670476913   -0.2617787123   -2.6217210293
C     4.7133421898    0.3274004459   -1.1990667582
F     5.5606360435    0.3583345115   -2.2697217464
C     5.2167205811    0.6158579588    0.0303013846
F     6.5289530754    0.9253846407    0.1792372018
C     4.3637351990    0.5852317810    1.1115890741
F     4.8647885323    0.8713437319    2.3281996250
C     3.0320904255    0.2686938643    0.9436315298
F     2.2529182434    0.2570122778    2.0439980030
N    -0.8266125917   -0.4683891237    1.3545808792
C    -0.7198818922   -1.1078025103    2.6251132488
H    -2.6932048798    2.2926461697    0.3231011033
H    -1.9858083725    2.1394340992   -1.3207542896
H    -0.9843534827    1.8777823448    0.1131168082
H    -4.0872569084   -0.8232735991    0.4703886211
H    -4.0107765198    0.9487437606    0.9331550002
H    -2.9052293301   -0.2359206527    1.6734323502
H    -2.5779654980    0.3260598779   -2.5266528130
H    -3.2622301579   -1.1845653057   -1.7169582844
H    -4.1418786049    0.3308872581   -1.5528730154
H    -1.2928788662   -1.3888998032   -2.2102918625
H    -1.3206340075   -2.0553081036    2.6665570736
H     0.2953530252   -1.3765587807    2.9325764179
H    -1.1575602293   -0.4230579734    3.3491399288
34

O    -0.4603846669   -0.5566173792    1.4530062675
S    -0.9416249394    0.1923243850    0.4757983387
C    -2.2765927315   -0.9270713925   -0.1762823015
C    -2.8169918060   -1.7434117794    0.9379281402
C    -1.6754431725   -1.7290809155   -1.3022578955
C    -3.4080507755   -0.0375715867   -0.6610168815
N    -0.8876107931    0.8811869025   -0.9710740447
I     0.5283235312    0.2952440083   -0.5212446451
C     2.5087704659    0.1002298594   -0.2208554149
C     3.0763185024    0.1962739527    1.0560643673
F     2.2942383289    0.4259345829    2.1333961487
C     4.4316077232    0.0629241467    1.2628867626
F     4.9765896797    0.1575689912    2.5078997612
C     5.2914519310   -0.1718876809    0.2169063985
F     6.6259446144   -0.3056665063    0.4010514319
C     4.7486586571   -0.2692418993   -1.0474261045
F     5.5831985474   -0.5037444234   -2.1145420074
C     3.3962023258   -0.1394930333   -1.2798441648
F     2.8920042515   -0.2401635796   -2.5345132351
N    -1.7072687149    1.4680974483    1.2130422592
C    -1.4830918312    2.8586595058    1.0489697456
H    -3.9394612312   -1.7024841309    1.0455280542
H    -2.4220638275   -1.3938409090    1.9064153433
H    -2.5283491611   -2.8129351139    0.8124925494
H    -0.9123612642   -1.1047543287   -1.8111675978
H    -2.4553062916   -1.9344352484   -2.0671157837
H    -1.1911141872   -2.6206166744   -0.9081577063
H    -4.3353004456   -0.6444742084   -0.5927029252
H    -3.5223557949    0.8180387616    0.0222614482
H    -3.3069834709    0.2459143996   -1.7297887802
H    -1.6241503954    1.3673065901   -1.4612653255
H    -2.4602410793    3.3834004402    1.2267788649
H    -0.7387416959    3.3005425930    1.7112597227
H    -1.2598204613    3.0838441849   -0.0324310549
34

O    -1.7450703382    2.2302241325    0.7415069938
S    -0.9626155496    0.4187609255    0.3625150621
C    -2.4051790237   -0.4699011743    0.2616214454
C    -2.7691812515   -1.2996473312    1.4660865068
C    -2.3290696144   -1.4165979624   -0.9188724160
C    -3.6187930107    0.4315959811    0.0000431685
N    -0.7220510244    0.4313569367    1.8226740360
I     0.5216075182    0.1960851252    0.8228983283
C     2.4753904343   -0.0803508312    0.3489889503
C     2.9631178379   -0.2931983173   -0.9444296360
F     2.0836522579   -0.3193080425   -1.9607130289
C     4.3011627197   -0.4744567871   -1.2031935453
F     4.7624397278   -0.6816679835   -2.4745783806
C     5.2317266464   -0.4559962153   -0.2024978101
F     6.5570993423   -0.6261808276   -0.3827110827
C     4.7840662003   -0.2483643293    1.0849666595
F     5.6597371101   -0.2185711563    2.1282322407
C     3.4628331661   -0.0692089498    1.3418796062
F     3.0559117794    0.1348310560    2.6370046139
N    -0.8361988068    0.9172822833   -1.0126672983
C    -0.5068450570    2.0235569477   -1.8461375237
H    -1.9129947424   -1.7938455343    1.9549324512
H    -3.5836868286   -1.9905873537    1.1658002138
H    -3.2112085819   -0.6210227013    2.2430853844
H    -2.1762034893   -2.4747107029   -0.5649656057
H    -1.4557641745   -1.2146327496   -1.5735017061
H    -3.2494180202   -1.4109138250   -1.5261228085
H    -4.3690094948   -0.0612776689   -0.6371111274
H    -4.0488224030    0.7974879146    0.9677377939
H    -3.2101554871    1.2850507498   -0.5842268467
H    -1.3655972481    0.3709183633    2.6107923985
H    -0.9188168645    2.9668118954   -1.3826032877
H     0.5883331299    2.1185462475   -1.9511505365
H    -1.0503970385    1.8979318142   -2.7952835560
34

O    -0.4447939098    0.2238711119   -1.2410007715
S    -0.8522174358    0.1223726273    0.5406790972
C    -2.1708116531   -0.8280483484    0.0091392156
C    -3.0185301304   -1.1842037439    1.2375634909
C    -1.7830474377   -2.1273059845   -0.6436816454
C    -3.1095252037   -0.1106986403   -0.9510638714
N    -0.3240672946   -0.9498500824    1.3297733068
I     0.6377501488    0.3269364834    0.9563655257
C     2.5835435390    0.3170889020    0.1067915484
C     3.5740020275    0.9215391278    0.8527224660
F     3.2627987862    1.4816412926    2.0686852932
C     4.8633050919    0.9615945220    0.3798446953
F     5.8053021431    1.5686920881    1.1515733004
C     5.1600303650    0.3923950195   -0.8473415971
F     6.4340243340    0.4456558228   -1.2881411314
C     4.1390190125   -0.2139830738   -1.5839461088
F     4.4637746811   -0.7663725019   -2.7905983925
C     2.8361256123   -0.2601995468   -1.1171796322
F     1.8513251543   -0.8356619477   -1.8093020916
N    -1.6874588728    1.4435565472    0.9088307023
C    -1.7116937637    2.7260005474    0.3002399504
H    -2.5476186275   -2.0579345226    1.7384468317
H    -4.0750803947   -1.3013266325    1.0004059076
H    -2.9049634933   -0.3362293243    1.9677189589
H    -2.6925966740   -2.7903499603   -0.5977519751
H    -0.9925281405   -2.6799702644   -0.0907034650
H    -1.5439780951   -1.9988629818   -1.7189115286
H    -3.9436283112    0.3629287779   -0.3839972615
H    -2.5991446972    0.6898803115   -1.5262845755
H    -3.5776693821   -0.8536935449   -1.6552063227
H    -0.4097439647   -1.9071570635    1.7378567457
H    -1.1719676256    2.7288415432   -0.6825274825
H    -2.7776932716    3.0305511951    0.1187676713
H    -1.2722424269    3.4583022594    1.0166944265
34

O    -2.1069099903   -1.8957896233   -1.0798360109
S    -0.9885430336   -0.0145352790   -1.1827614307
C    -1.5406928062    0.0138463825    0.3292221129
C    -1.0637916327   -1.0820266008    1.2687243223
C    -3.0677027702    0.0597977750    0.5119598508
C    -1.0897433758    1.3045518398    1.0400691032
N    -0.3549515903   -0.8151301146   -2.2185077667
I     0.5038014054   -0.3501751125   -0.9371428490
C     2.2009127140   -0.0787974820    0.1480204165
C     2.8627457619   -1.1210405827    0.7729166150
F     2.4080798626   -2.3953335285    0.6933551431
C     4.0202927589   -0.9279497266    1.5116254091
F     4.6716775894   -1.9495292902    2.1259078979
C     4.5488896370    0.3265334368    1.6440277100
F     5.6839351654    0.5571758151    2.3611102104
C     3.9145538807    1.3976869583    1.0324083567
F     4.4455542564    2.6355006695    1.1693677902
C     2.7572257519    1.1972126961    0.2951376438
F     2.1567161083    2.2776386738   -0.2955358624
N    -2.1249008179    0.7548965812   -1.9271659851
C    -2.6494562626    0.6714080572   -3.2622764111
H    -1.7691351175   -1.1995841265    2.1218411922
H    -0.0952169374   -0.7937880754    1.7212700844
H    -0.9824272394   -2.0111477375    0.6639472246
H    -3.5874993801   -0.5888852477   -0.2220590860
H    -3.4510717392    1.0906275511    0.3409919739
H    -3.3626403809   -0.2115956843    1.5475584269
H    -1.2134890556    2.1665916443    0.3746907115
H    -1.7176606655    1.4812119007    1.9386866093
H    -0.0417413823    1.1937476397    1.4191004038
H    -0.6465567946   -1.1033076048   -3.1528906822
H    -2.7351036072   -0.3992443979   -3.5122780800
H    -3.6622650623    1.1142520905   -3.3295514584
H    -1.9228852987    1.1889661551   -3.9119331837
34

O    -0.3731934428   -1.1845072508   -0.2540399134
S    -0.8162526488    0.1480786651   -0.1879269481
C    -2.2996037006   -0.0223426931    0.6468340755
C    -3.2172017097    1.1510294676    0.6204815507
C    -1.9314587116   -0.3970729709    2.0781366825
C    -3.1053032875   -1.2085205317    0.1106924191
N    -0.5258380771    1.6008886099    0.3772265613
I     0.6856498718    0.6388345361    0.8608651161
C     2.6173555851    0.0508481339    0.3926056027
C     3.5171000957    0.9771170616   -0.1134022698
F     3.1455044746    2.2657363415   -0.3053325117
C     4.8166108131    0.6501550078   -0.4448581040
F     5.6571388245    1.5992889404   -0.9376750588
C     5.2715573311   -0.6432183385   -0.2780785859
F     6.5393872261   -0.9464653134   -0.6052216291
C     4.3875093460   -1.5615484715    0.2210765034
F     4.8154463768   -2.8263378143    0.3895058930
C     3.0810415745   -1.2410243750    0.5562692881
F     2.2052240372   -2.1457235813    1.0495518446
N    -0.9010357857    0.5977624059   -1.7462635040
C    -1.4875992537   -0.2225620151   -2.7247581482
H    -3.1583170891    1.7546595335   -0.3007384539
H    -2.9776222706    1.7597526312    1.5392377377
H    -4.2786536217    0.8429847360    0.7359812856
H    -1.2598788738    0.4072761238    2.4365916252
H    -1.4090628624   -1.3875727654    2.0380804539
H    -2.8450448513   -0.4333760440    2.6747622490
H    -2.3753237724   -1.9269248247   -0.3288851082
H    -3.6097371578   -1.7418118715    0.9476166368
H    -3.8319766521   -0.8449040055   -0.6381696463
H    -1.1621273756    2.3863923550    0.2206291258
H    -1.1235163212   -0.0780920312   -3.7568812370
H    -1.4735531807   -1.3125267029   -2.5118470192
H    -2.5772252083    0.0526551902   -2.7620666027
34

O    -0.3420531154    1.2970108986    0.8878314495
S    -0.8798214793    0.2935948074   -0.0569818281
C    -2.4378483295    0.1346131712    0.6004940271
C    -3.4058361053   -0.2143345475   -0.5347989202
C    -3.0188431740    1.4358708858    1.1738727093
C    -2.6314413548   -0.8829420805    1.6810027361
N    -0.6973615885   -1.3402028084   -0.1533083320
I     0.4090921581   -0.9678641558    1.0017776489
C     2.4421882629   -0.4704279006    0.7477434278
C     2.9487342834    0.7497079968    1.1292604208
F     2.1374309063    1.6782442331    1.6879463196
C     4.2914943695    1.0216333866    0.9385095835
F     4.8220176697    2.2111790180    1.3022050858
C     5.1127982140    0.0942931026    0.3780597150
F     6.4286208153    0.3439136446    0.1843125373
C     4.5998129845   -1.1390892267   -0.0073907580
F     5.4047026634   -2.0838725567   -0.5712481141
C     3.2533912659   -1.4381700754    0.1731587648
F     2.7594523430   -2.6519749165   -0.2086116374
N    -0.4923496544    0.6866825819   -1.3968414068
C    -0.3474040329    0.5120704770   -2.7821726799
H    -4.4478669167   -0.1308044642   -0.1590350568
H    -3.2391631603   -1.2112815380   -0.9507285357
H    -3.1864516735    0.5576677918   -1.3234053850
H    -2.1189084053    1.9467422962    1.6215887070
H    -3.7331788540    1.2523624897    1.9709281921
H    -3.3478138447    2.0889487267    0.3675288856
H    -2.2469148636   -1.8844522238    1.3289262056
H    -2.2207236290   -0.6232615113    2.6563072205
H    -3.7388794422   -1.0502541065    1.7810186148
H    -1.2615668774   -1.8165415525   -0.8511833549
H    -0.8005309105    1.4230266809   -3.2736365795
H     0.7456882596    0.5989734530   -3.0429694653
H    -0.7604668736   -0.4210620821   -3.1876213551
34

O    -0.0977195948    1.4389640093    0.0020709950
S    -0.8928359747   -0.4217505455   -0.0361114368
C    -2.2179908752    0.4125692248    0.5884573460
C    -2.8153955936    1.3857982159   -0.4283955991
C    -2.0327475071    1.1791548729    1.8614044189
C    -3.3530774117   -0.5817039609    0.8701561093
N    -0.5964152813   -1.0317047834    1.2616366148
I     0.6159533262   -0.9994118810    0.1751171201
C     2.6022503376   -0.4532461464    0.0749545023
C     3.2552032471    0.1508813351    1.1500587463
F     2.5995590687    0.3966688812    2.2949938774
C     4.5926890373    0.5109165311    1.0624839067
F     5.2441191673    1.1040047407    2.1100513935
C     5.2997841835    0.2665241659   -0.1183220595
F     6.6086239815    0.6041874886   -0.2423211187
C     4.6564660072   -0.3356135488   -1.1956338882
F     5.3647522926   -0.5623010993   -2.3311715126
C     3.3280279636   -0.6825687289   -1.0808644295
F     2.7240564823   -1.2722843885   -2.1559255123
N    -1.2902290821   -0.6279001236   -1.3929432631
C    -1.6357415915   -0.9946762323   -2.6584479809
H    -3.2646539211    2.2715437412    0.0482457913
H    -3.6019518375    0.8826757669   -1.0402053595
H    -2.0230858326    1.7367684841   -1.1100734472
H    -2.9757070541    1.6864237785    2.1022572517
H    -1.1941351891    1.8934544325    1.6704860926
H    -1.7051501274    0.5291007161    2.6903650761
H    -3.1134665012   -1.1476114988    1.7925010920
H    -4.2526679039    0.0377372690    1.0718873739
H    -3.5814819336   -1.2096401453    0.0078396071
H    -0.9596596956   -1.3545030355    2.1928226948
H    -0.9967511892   -1.7646684647   -3.1515576839
H    -2.7019240856   -1.3515006304   -2.7572231293
H    -1.5886965990   -0.0862758458   -3.3285934925
34

O    -2.7377998829    1.4438598156   -0.6178814769
S    -1.5590693951    0.6201122403   -0.5531862378
C    -2.0556893349   -0.6371036768    0.5072820783
C    -1.0689302683   -0.9174020886    1.6369142532
C    -2.1853404045   -1.8935709000   -0.3676036894
C    -3.3933687210   -0.4612926543    1.1522439718
N    -1.3454619646    0.4484963715   -2.0245614052
I    -0.1277996004   -0.1471913308   -1.1217942238
C     1.8415081501   -0.2168613523   -0.5683852434
C     2.7741744518   -0.8249943852   -1.4243286848
F     2.3346371651   -1.3559012413   -2.6094839573
C     4.0978169441   -0.9100760221   -1.1273310184
F     4.9396038055   -1.5183861256   -2.0153679848
C     4.6089301109   -0.4026567042    0.0371917151
F     5.9092531204   -0.4768013060    0.3473223150
C     3.7222559452    0.2056379914    0.9094914198
F     4.1745128632    0.7263931632    2.0793790817
C     2.3846106529    0.2890914381    0.6044241786
F     1.5596145391    0.8820164204    1.4676463604
N    -0.6331548095    1.8020480871    0.3697208762
C    -0.3717954457    3.0350723267   -0.2534814477
H    -1.5076525211   -1.6946226358    2.2786071301
H    -0.8996195793    0.0312737525    2.1854221821
H    -0.1017028615   -1.2391560078    1.1813594103
H    -2.8051776886   -1.5818417072   -1.2370837927
H    -2.6395273209   -2.7315564156    0.1572072953
H    -1.1994613409   -2.1833469868   -0.7659031749
H    -4.1319198608   -0.2778341174    0.3198411465
H    -3.6255021095   -1.4054145813    1.6773327589
H    -3.3659324646    0.4147108793    1.8397184610
H    -1.7474486828    0.6879028678   -2.9575681686
H     0.4711446166    3.0132091045   -0.9701404572
H    -1.2748137712    3.5284149647   -0.6940346956
H    -0.0408942178    3.7477707863    0.5570313334
34

O    -2.0201256275    1.4233641624    2.0839278698
S    -1.0977281332   -0.2584852874    1.1796244383
C    -1.6680068970    0.4505642354   -0.1157327592
C    -1.0896055698    1.8222229481   -0.4166738093
C    -3.1925885677    0.6315336227   -0.2104701698
C    -1.3557697535   -0.3609391153   -1.3870065212
N    -0.3893043101   -0.2289579660    2.4329664707
I     0.4129056334   -0.0596027784    1.0430926085
C     2.1028969288    0.0881796405   -0.0625872537
C     2.9841346741    1.1653999090    0.0952885300
F     2.6908516884    2.1386265755    1.0206428766
C     4.1294026375    1.3006693125   -0.6281998158
F     4.9368319511    2.3869385719   -0.4106739163
C     4.4767937660    0.3685553670   -1.5622315407
F     5.6284012794    0.5529267788   -2.2542357445
C     3.6427862644   -0.7130860090   -1.7572845221
F     3.9917416573   -1.6327810287   -2.6833109856
C     2.4802184105   -0.8423714042   -1.0169749260
F     1.6675900221   -1.9098570347   -1.2170027494
N    -2.3053956032   -1.2841757536    1.4942252636
C    -2.0493888855   -2.6147124767    1.9741317034
H    -1.3154104948    2.5347514153    0.4211836755
H    -1.6296290159    2.1990962029   -1.3175562620
H    -0.0062885149    1.7727643251   -0.6343156099
H    -3.7392611504   -0.1949915588    0.2723565996
H    -3.5302183628    0.7849551439   -1.2444796562
H    -3.4681286812    1.5603973866    0.3426859081
H    -1.4479122162   -1.4583646059   -1.1763381958
H    -2.0423154831   -0.1263422221   -2.1999466419
H    -0.3173234761   -0.1520750672   -1.7272280455
H    -0.6470590234   -0.4266034067    3.4021482468
H    -1.1263966560   -3.0241503716    1.4804929495
H    -1.8168648481   -2.5897190571    3.0542814732
H    -2.8898332119   -3.3037304878    1.7252007723
34

O    -0.8292586803   -0.8351046443   -1.2404843569
S    -0.9664857388   -0.3034548163    0.0975057259
C    -2.3856737614    0.6220745444   -0.0663790181
C    -3.4913091660   -0.3145787120   -0.5739382505
C    -2.1684887409    1.6077485085   -1.1820487976
C    -2.9276766777    1.3091758490    1.1282794476
N    -0.6846282482   -0.1467875093    1.5257682800
I     0.5629775524   -0.0539496467    0.5167909265
C     2.4897515774    0.2169170082   -0.0466858223
C     3.0838341713    1.4692728519   -0.0902412385
F     2.3649277687    2.5420079231    0.2507269979
C     4.4084300995    1.6218726635   -0.4813515246
F     4.9777407646    2.8545994759   -0.5194505453
C     5.1778488159    0.5335606933   -0.8396261930
F     6.4695825577    0.7099587917   -1.2179826498
C     4.6077952385   -0.7016934752   -0.8015742302
F     5.3704242706   -1.7826167345   -1.1569222212
C     3.2939639091   -0.8684410453   -0.4153521657
F     2.8145442009   -2.1329679489   -0.4085022509
N    -1.7476726770   -2.0527424812    0.5809658766
C    -0.6826769710   -2.9576399326    0.8341585398
H    -3.3466980457   -0.5835241675   -1.6257973909
H    -4.4554424286    0.2389089316   -0.4986615479
H    -3.6088671684   -1.1810081005    0.1174612120
H    -3.0613970757    2.2808907032   -1.1874327660
H    -2.1247258186    1.0751303434   -2.1454582214
H    -1.2934641838    2.2168960571   -0.9442059398
H    -3.2933464050    0.5217360258    1.8510326147
H    -2.1926779747    1.9083613157    1.6868538857
H    -3.7744226456    1.9244893789    0.8168006539
H    -1.3103108406   -0.0606840625    2.3222281933
H    -0.9291687608   -3.9512982368    0.3969441354
H     0.3169133663   -2.6209008694    0.5668423772
H    -0.6643422842   -3.1062083244    1.9481315613
34

O    -0.8289180994   -1.0996886492   -1.0445468426
S    -1.0517677069   -0.4348859787    0.0395398922
C    -2.2498426437    0.7837838531   -0.4458688796
C    -3.3731014729    0.8534145355    0.5846878290
C    -2.8927011490    0.4747989774   -1.7549662590
C    -1.4987138510    2.0722010136   -0.5389822721
N    -0.8613852859    0.2663111687    1.4605178833
I     0.4857072830   -0.1360387057    0.6880680323
C     2.4333097935   -0.1350939870    0.1711047441
C     3.3808419704   -0.9050278664    0.8531000614
F     2.9585011005   -1.6693469286    1.8911352158
C     4.7142868042   -0.9024704099    0.4968251288
F     5.6492533684   -1.6419161558    1.1452133656
C     5.1611723900   -0.1301107705   -0.5574399233
F     6.4592180252   -0.0926491022   -0.9466442466
C     4.2463774681    0.6393582225   -1.2475439310
F     4.6299281120    1.4250566959   -2.3012068272
C     2.9120550156    0.6391675472   -0.8939009309
F     2.0373065472    1.3954854012   -1.5786817074
N    -2.0950274467   -1.7046158314    0.9035882950
C    -1.2942147255   -2.6778523922    1.5412484407
H    -3.6298923492   -0.1503435820    0.9315350652
H    -4.2606668472    1.3006827831    0.0617160872
H    -3.1528797150    1.5696573257    1.3996895552
H    -2.2457230091   -0.1007542536   -2.4459908009
H    -3.0890247822    1.4588067532   -2.2646133900
H    -3.8831532001   -0.0072657117   -1.6632401943
H    -1.0330471992    2.1396002769   -1.5556628704
H    -2.1461324692    2.9464249611   -0.4048852026
H    -0.6247104406    2.1070570946    0.1729369760
H    -1.5256222486    0.5951816440    2.1501863003
H    -0.4722180665   -2.9866516590    0.8671520948
H    -0.9209200740   -2.3388257027    2.5501475334
H    -1.9382948875   -3.5534505844    1.7357816696
34

O    -1.0250171423   -0.9948089719    1.8918859959
S    -0.9722436666   -0.3970448077    0.1570651084
C    -2.5267014503   -0.0227980521    0.2664318085
C    -3.1244082451    0.4270722568   -1.0574305058
C    -2.8269007206    1.1164186001    1.2500867844
C    -3.4546477795   -1.1474710703    0.7280993462
N    -1.0969505310   -1.4002654552   -0.8730081320
I     0.3329267204   -1.4022815228   -0.1259118170
C     2.3274168968   -0.8626379371    0.0068601095
C     2.8860299587   -0.6932098866    1.2774838209
F     2.1619858742   -0.8716051579    2.4079666138
C     4.2131242752   -0.3330153823    1.4430946112
F     4.7626676559   -0.1669207811    2.6558566093
C     4.9721579552   -0.1452462822    0.3075171709
F     6.2690134048    0.2061646283    0.4311582446
C     4.4613428116   -0.3015137017   -0.9447790384
F     5.2190203667   -0.1139280051   -2.0686304569
C     3.1372342110   -0.6606854796   -1.0953724384
F     2.6245429516   -0.8172308207   -2.3306500912
N    -0.3332645595    1.0735291243    0.2060115486
C     0.6033203602    1.7344806194   -0.6023484468
H    -2.2871525288    0.8611820340   -1.6459441185
H    -3.9277641773    1.1756321192   -0.9050676227
H    -3.5484566689   -0.4473330081   -1.6073491573
H    -3.8473033905    1.0714590549    1.6277500391
H    -2.6688065529    2.0557157993    0.6782193184
H    -2.0506033897    1.1466057301    2.0552906990
H    -3.5911357403   -1.9047881365   -0.0398301594
H    -2.9760367870   -1.5306689739    1.6637709141
H    -4.4215335846   -0.7118355632    1.0668936968
H    -1.7461699247   -1.7953652143   -1.6086457968
H     0.8760545254    1.1141371727   -1.4786131382
H     0.1156235337    2.6945884228   -0.9439083934
H     1.4626351595    2.0436685085    0.0229205955
34

O    -0.5334029794    0.5651974082   -1.5470106602
S    -0.9818432331    0.5066901445   -0.2176956534
C    -2.0490174294   -0.7542057633   -0.1628519595
C    -1.9815304279   -1.6964527369   -1.3482122421
C    -3.4869406223   -0.2261440903   -0.1175071374
C    -1.9519350529   -1.6687623262    1.0648893118
N    -0.9575513005    0.8735285997    1.2563991547
I     0.4976876378    0.8651337624    0.5767023563
C     2.3749921322    0.2126639336    0.2065484226
C     3.4580864906    1.0748485327    0.0939351022
F     3.2332580090    2.4187512398    0.2413736433
C     4.7363486290    0.6202141643   -0.1589167863
F     5.7939457893    1.4599852562   -0.2690967023
C     4.9820561409   -0.7321726084   -0.3105837703
F     6.2198057175   -1.2170208693   -0.5590819120
C     3.9235117435   -1.6128422022   -0.2036245763
F     4.1592378616   -2.9587087631   -0.3530362844
C     2.6668043137   -1.1411907673    0.0469740368
F     1.6429919004   -2.0336580276    0.1471008509
N    -2.0613372326    2.0695366859   -0.4806486666
C    -1.3113951683    3.2598893642   -0.3293362260
H    -2.2577338219   -2.7372062206   -1.0910861492
H    -0.9420728087   -1.6437351704   -1.7376099825
H    -2.6517665386   -1.2770994902   -2.1413667202
H    -4.1781692505   -1.0238617659    0.2054441869
H    -3.7406430244    0.0587871708   -1.1587147713
H    -3.5382630825    0.6859063506    0.5398792028
H    -2.7404658794   -2.4428870678    0.9564583898
H    -0.9729378223   -2.1816055775    1.0826374292
H    -2.1748654842   -1.1167374849    1.9931842089
H    -1.7166157961    0.9297158718    1.9214141369
H    -1.9006196260    3.9100468159    0.3816302717
H    -0.2827272713    3.1143362522    0.0458269790
H    -1.2768927813    3.8390588760   -1.2819291353
34

O    -0.2912798822    0.4699459374    1.5872936249
S    -0.8429816365   -0.2192899883    0.1243203655
C    -2.3847057819   -0.0239526536    0.4756824672
C    -2.7422618866    1.3934942484    0.9146926403
C    -2.8812720776   -0.9477582574    1.5902886391
C    -3.3084762096   -0.3219548762   -0.7099742889
N    -0.9022897482   -1.6526119709   -0.1288475394
I     0.5726206303   -1.0245016813   -0.1956259608
C     2.4892437458   -0.4466775060    0.0474890247
C     3.4076967239   -0.4805459976   -1.0064240694
F     2.9825208187   -0.9146426320   -2.2123801708
C     4.7199420929   -0.0857602879   -0.8431775570
F     5.5524792671   -0.1512042582   -1.9293888807
C     5.1582088470    0.3552717566    0.3757492900
F     6.4538674355    0.7305591702    0.4822192192
C     4.2852396965    0.4050022364    1.4435248375
F     4.7542996407    0.8475500941    2.6369919777
C     2.9744915962    0.0084666489    1.2721776962
F     2.1701214314    0.0823547766    2.3616876602
N    -0.7527141571    0.9766399860   -1.0853846073
C    -0.5095871687    0.6428454518   -2.4433526993
H    -2.4708268642    1.5616291761    1.9834473133
H    -3.8510613441    1.4229819775    0.8790602088
H    -2.3456075191    2.1512277126    0.2426669598
H    -2.0237722397   -1.2894597054    2.1794538498
H    -3.3851411343   -1.8455976248    1.1865359545
H    -3.6016285419   -0.4512507915    2.2587389946
H    -3.0570368767    0.4008845389   -1.4909405708
H    -3.1053545475   -1.3832576275   -0.9914420247
H    -4.3592271805   -0.1762572080   -0.4039107561
H    -1.4931288958   -2.5001904964   -0.1591919661
H     0.4322389364    1.1770123243   -2.7531371117
H    -0.3518168330   -0.4442166090   -2.5723822117
H    -1.2928001881    1.0627832413   -3.1164603233
34

O    -0.5821689963    0.7213976979    1.4124072790
S    -1.1190184355    0.8167194128    0.0305608176
C    -1.8741655350   -0.6490443945   -0.1186144650
C    -0.9101719856   -1.7664358616    0.3086893260
C    -2.4347298145   -1.0700776577   -1.4420442581
C    -2.9945399761   -0.7154045105    0.9011359215
N    -0.8286163211    1.1049461365   -1.4013254642
I     0.5774856210    1.1760967970   -0.6177799106
C     2.3105778694    0.1975969821   -0.0946176201
C     3.0362322330    0.6380540133    1.0129424334
F     2.5967075825    1.7048609257    1.7358056307
C     4.1986222267    0.0399031192    1.4246093035
F     4.8849415779    0.4998144507    2.5174186230
C     4.6870894432   -1.0431845188    0.7283717394
F     5.8292551041   -1.6921761036    1.0688832998
C     4.0074043274   -1.5171395540   -0.3731977642
F     4.4279546738   -2.5754394531   -1.1041101217
C     2.8396706581   -0.8955077529   -0.7650910616
F     2.1537454128   -1.3453933001   -1.8470634222
N    -2.1312384605    2.1358373165    0.3452791274
C    -1.9145022631    3.4551272392   -0.1249329448
H     0.1033842266   -1.4110329151    0.0518589430
H    -1.1474692822   -2.7106750011   -0.1885131598
H    -0.9408662915   -1.8891339302    1.4119203091
H    -1.8671002388   -0.7062762976   -2.3178246021
H    -3.4871697426   -0.7584289312   -1.6088951826
H    -2.4382381439   -2.1870632172   -1.5717519522
H    -3.9723892212   -0.4070369303    0.4336335957
H    -3.1561536789   -1.7577961683    1.2656916380
H    -2.8068399429   -0.0935963243    1.7992219925
H    -1.5092082024    1.3196353912   -2.1321256161
H    -0.8363618255    3.5814783573   -0.3573966026
H    -2.4579041004    3.6459748745   -1.0727916956
H    -2.2442193031    4.1533999443    0.6896460056
34

O    -0.2434576452    0.1624688655   -1.6245499849
S    -0.9518517852    0.5678191781   -0.1764680892
C    -2.1593186855   -0.6713317037    0.2428429425
C    -1.4951694012   -2.0180501938    0.4039995074
C    -3.2275593281   -0.7963775396   -0.7911677361
C    -2.6827926636   -0.2309228182    1.6003667116
N    -0.4591417015    1.4971374273    0.8463469148
I     0.3457096517    0.0642131492    0.7345902920
C     2.4111583233   -0.2490132749    0.3108211756
C     2.7625148296   -1.3614760637   -0.3936874568
F     1.8096619844   -2.2263956070   -0.8009380102
C     4.0943617821   -1.6157627106   -0.6981398463
F     4.4303774834   -2.7200174332   -1.3959953785
C     5.0532479286   -0.7116534710   -0.2681839764
F     6.3486390114   -0.9744932652   -0.5735047460
C     4.7078728676    0.4293983877    0.4527084529
F     5.6701760292    1.3048503399    0.8651485443
C     3.3622479439    0.6581311226    0.7434855103
F     3.0011010170    1.7590730190    1.4422069788
N    -1.9336824417    1.5769467354   -0.8530807495
C    -1.8301279545    2.9486947060   -1.2707068920
H    -0.6144822836   -2.0139739513    1.0452892780
H    -1.3730652332   -2.4955456257   -0.5862748623
H    -2.2578818798   -2.6622450352    0.9261517525
H    -4.1702704430   -0.3445750475   -0.3710185289
H    -3.4435760975   -1.8380565643   -1.0522325039
H    -3.0023803711   -0.2233949006   -1.7368412018
H    -3.6015994549   -0.7604502439    1.8865622282
H    -1.8464037180   -0.3474563360    2.3209600449
H    -2.8633532524    0.8681455851    1.5303250551
H    -0.4494712055    2.4881238937    1.1833510399
H    -1.3791757822    3.5060875416   -0.4042316973
H    -1.1813151836    3.0447356701   -2.1415166855
H    -2.8309924603    3.3853657246   -1.3966183662
34

O    -0.7133306861   -0.0464276858   -1.5302836895
S    -1.0293117762    0.3800830841   -0.2332313508
C    -2.2697825432   -0.7112761736    0.2323218137
C    -2.3077490330   -1.0547801256    1.7044442892
C    -2.1955673695   -2.0429406166   -0.4969861209
C    -3.6299817562   -0.1200892851   -0.1140923947
N    -0.8759478927    1.1425435543    1.0574891567
I     0.5016159415    0.6640743613    0.3909608722
C     2.4344329834    0.1422870606    0.1751970202
C     3.2092227936    0.5598630309   -0.8934694529
F     2.6671106815    1.3512235880   -1.8437436819
C     4.5321640968    0.2064041644   -1.0469088554
F     5.2938561440    0.6132099032   -2.0916266441
C     5.1360831261   -0.6005334854   -0.1052288786
F     6.4309282303   -0.9934321046   -0.1818864495
C     4.4040436745   -1.0365039110    0.9694164395
F     4.9465804100   -1.8254299164    1.9156930447
C     3.0882406235   -0.6739958525    1.1048535109
F     2.3503968716   -1.1027202606    2.1712172031
N    -1.9684958458    1.8743203878   -0.8887090683
C    -0.9971863627    2.8658757210   -1.2704102993
H    -3.0088863373   -0.3680348396    2.2206079960
H    -1.2896335125   -0.7817692161    2.1057705879
H    -2.4992055893   -2.1177012920    1.9084129333
H    -3.0469686985   -2.2312452793   -1.1667258739
H    -2.0227286816   -2.9020798206    0.1603832990
H    -1.2986253500   -1.9887847900   -1.1588370800
H    -4.3906602859   -0.9301884770    0.0700346306
H    -3.8591372967    0.7648423314    0.5094027519
H    -3.6184298992    0.1186385006   -1.1926691532
H    -1.5790135860    1.4321802855    1.7270902395
H    -1.5791962147    3.7520716190   -1.5402115583
H    -0.3090459108    3.1505255699   -0.4650901854
H    -0.5057920814    2.5097901821   -2.2031850815
34

O    -0.2521075308    0.4293642640   -1.1599296331
S    -0.8713007569    0.1396849006    0.5743168592
C    -2.3765602112    0.5199019909    0.0033949597
C    -2.4582171440    1.8984659910   -0.6577339172
C    -3.4122815132    0.5720050931    1.1238640547
C    -2.9629197121   -0.4515057802   -1.0322327614
N    -0.7550849319    1.2000031471    1.4703404903
I     0.5532053113    0.2909913063    1.2531371117
C     2.4929983616   -0.0021596507    0.6071705222
C     3.1946518421   -1.1891785860    0.6978765726
F     2.5579273701   -2.2462477684    1.2559596300
C     4.4912104607   -1.3365408182    0.2515453696
F     5.1526746750   -2.5294327736    0.3592233658
C     5.1424736977   -0.2534357905   -0.3198530376
F     6.4214639664   -0.3752602041   -0.7672065496
C     4.4726653099    0.9513891339   -0.4279490113
F     5.0879316330    2.0399794579   -0.9873684645
C     3.1769492626    1.0719163418    0.0261155125
F     2.5661091805    2.2928087711   -0.1091208085
N    -1.1164565086   -1.4720966816    0.6590806246
C    -0.6633544564   -2.3425307274   -0.3986142278
H    -1.3965901136    2.1315486431   -0.9542231560
H    -2.8222188950    2.6817028522    0.0037631930
H    -3.0233695507    1.9017460346   -1.5933146477
H    -4.4232864380    0.3080422282    0.7994723320
H    -3.4429736137    1.6182770729    1.5479179621
H    -3.0285074711   -0.0434077829    1.9726821184
H    -2.4028155804   -0.4560034871   -1.9671602249
H    -3.0818722248   -1.4674595594   -0.5583719015
H    -4.0062417984   -0.0999597535   -1.1595832109
H    -1.2806600332    1.9522029161    2.0040977001
H    -1.3704664707   -3.1490771770   -0.6142218709
H    -0.4982361794   -1.7833459377   -1.3583182096
H     0.3352597952   -2.8023874760   -0.1741808653
34

O    -0.0689133257   -0.9911875725    1.0799540281
S    -0.9650924802    0.2140425444    0.0971570164
C    -2.2039024830   -0.8991498947    0.0046929144
C    -3.4567768574   -0.2690942287   -0.6173031330
C    -2.7162086964   -1.4559134245    1.3392928839
C    -1.9020314217   -2.1287102699   -0.8529599905
N    -0.7795640230    0.2832959890   -1.3391526937
I     0.3895492554    0.9314649105   -0.3859988451
C     2.4693741798    0.5995028615   -0.3067837358
C     3.2656762600    1.3813089132    0.5181174874
F     2.7230277061    2.3495924473    1.2681882381
C     4.6053180695    1.1385512352    0.5438585281
F     5.4385118484    1.8730130196    1.3338749409
C     5.2098550797    0.1445305943   -0.2177255154
F     6.5408220291   -0.0764176697   -0.1744503975
C     4.3967614174   -0.6220189929   -1.0322684050
F     4.9610695839   -1.5900006294   -1.7782465219
C     3.0351712704   -0.3993359804   -1.0794593096
F     2.2679111958   -1.1748280525   -1.8936753273
N    -1.6791898012    1.2598940134    1.1178455353
C    -1.4095435143    2.6701192856    1.2906930447
H    -3.1413102150    0.2439713478   -1.5368580818
H    -3.8345339298    0.4898747802    0.0972300693
H    -4.2304224968   -1.0587766171   -0.7808580399
H    -3.2211003304   -2.4303083420    1.1592249870
H    -3.4842257500   -0.8088322878    1.7927472591
H    -1.8579192162   -1.6540958881    2.0027172565
H    -2.1799030304   -1.8838850260   -1.8955030441
H    -0.7827753425   -2.1838781834   -0.8594055772
H    -2.3481028080   -3.0415613651   -0.4608923197
H    -1.0996912718   -0.0050829980   -2.2899782658
H    -1.0342212915    2.8750751019    2.3140249252
H    -0.6215239167    2.9274721146    0.5327194333
H    -2.2860953808    3.2913680077    1.0091805458
34

O    -0.4223420322   -1.3151708841   -0.4738713503
S    -0.8282061219    0.0510580800   -0.1642600447
C    -2.4353823662   -0.2521560192    0.3259806633
C    -3.2334320545    0.9198517799    0.8141813874
C    -2.6063525677   -1.3930920362    1.2675908804
C    -3.1504368782   -0.6719692349   -0.9693148136
N    -0.5486095548    1.2239116430    0.8381789327
I     0.4600581825    0.0292271599    1.2785943747
C     2.4698104858   -0.3669733107    0.7930287719
C     3.3426587582   -0.7542464137    1.7933473587
F     2.9257771969   -0.8805343509    3.0673539639
C     4.6741023064   -1.0158659220    1.4668813944
F     5.5724806786   -1.3988742828    2.4087047577
C     5.1170201302   -0.8894975185    0.1572555304
F     6.4260616302   -1.1519052982   -0.1345644295
C     4.2478604317   -0.5008561015   -0.8557333946
F     4.7017974854   -0.3818773329   -2.1386821270
C     2.9424180984   -0.2496812046   -0.5056247115
F     2.0734882355    0.1308248043   -1.4730916023
N    -0.5617910028    0.8111646175   -1.5031160116
C    -0.4357862771    2.1400806904   -1.9498035908
H    -4.2913985252    0.6094519496    0.8596329093
H    -3.1681585312    1.8020498753    0.1349321008
H    -2.9445383549    1.2158974409    1.8608834743
H    -2.7276434898   -1.0380465984    2.3226838112
H    -1.8045321703   -2.1450643539    1.2498314381
H    -3.5749483109   -1.9360936880    1.0607714653
H    -3.0693681240    0.2511175573   -1.6150975227
H    -2.6181929111   -1.4601267576   -1.5060628653
H    -4.2046861649   -0.8461077213   -0.7484199405
H    -1.1277947426    2.0666067600    0.7924897075
H     0.2535937428    2.7090210915   -1.3052890301
H     0.0033542379    2.0865700245   -2.9786391258
H    -1.4568816423    2.6013052464   -1.9863488674
34

O    -0.4764161110    1.1227767467   -0.7434713840
S    -0.9863178134   -0.4196887016    0.0309490655
C    -2.2787115574    0.4920538664    0.6652120352
C    -3.1509375572    1.0947321653   -0.4035196602
C    -1.7870711088    1.6378457546    1.5552045107
C    -3.2084381580   -0.3236474395    1.5722639561
N    -0.5684739947   -0.8751020432    1.2654742002
I     0.4310212731   -1.0220344067   -0.0345791802
C     2.4677085876   -0.4794383645   -0.1758577526
C     3.3851523399   -1.5265474319   -0.1089384183
F     2.9548728466   -2.8240377903    0.0409063101
C     4.7319626808   -1.2311465740   -0.1958929002
F     5.6463432312   -2.2414882183   -0.1325826347
C     5.1469397545    0.0951734632   -0.3474991322
F     6.4843931198    0.3614187539   -0.4311192930
C     4.2354454994    1.1315975189   -0.4135596156
F     4.6187291145    2.4336824417   -0.5613657236
C     2.8828554153    0.8186321855   -0.3245870471
F     1.9894018173    1.8022161722   -0.3854383230
N    -1.9087824821   -1.2021245956   -1.1520465612
C    -1.3046360016   -1.4169173241   -2.4409542084
H    -2.5319907665    1.6512032747   -1.1367206573
H    -3.9065620899    1.7426153421    0.0840228945
H    -3.7332136631    0.2613892853   -0.8863280416
H    -1.4274764061    2.4167504311    0.8336344957
H    -0.8568714857    1.2853227854    2.0758483410
H    -2.5445463657    2.0064375401    2.2494060993
H    -3.2896149158   -1.3703577518    1.2216367722
H    -2.7412819862   -0.3340247869    2.5865871906
H    -4.1887626648    0.1805560589    1.6682511568
H    -0.6722504497   -0.9081042409    2.3045256138
H    -1.3161770105   -0.4658893347   -3.0218997002
H    -0.2371561825   -1.6782388687   -2.2721338272
H    -1.8591372967   -2.2156159878   -2.9854285717
34

O    -1.7604361773   -0.8491292000    2.0735437870
S    -0.9417172670   -0.0048669861    0.4308007061
C    -2.3716511726    0.4324677885   -0.3602288961
C    -2.1842539310    0.1336943209   -1.8454114199
C    -2.7667071819    1.8894776106   -0.2996912003
C    -3.5850992203   -0.3754242659    0.0641563758
N    -0.7709481716    1.1442208290    1.3755489588
I     0.5305947065    0.5523118377    0.6389364004
C     2.4954838753    0.4047082067    0.1661529094
C     3.3300962448    1.5282503366    0.1920771301
F     2.7696814537    2.7291707993    0.5484275222
C     4.6697258949    1.4475104809   -0.1264646202
F     5.4112782478    2.5789268017   -0.0779716149
C     5.2467894554    0.2476065159   -0.4863965213
F     6.5606427193    0.1785553247   -0.7968779802
C     4.4440336227   -0.8734253645   -0.5190472007
F     5.0235819817   -2.0452368259   -0.8741686344
C     3.0927500725   -0.7848662734   -0.1963726729
F     2.3907344341   -1.9378801584   -0.2579589784
N    -0.7290401459   -1.3626652956   -0.0199848413
C    -0.6663972139   -2.7518682480    0.2206798494
H    -1.4095815420    0.8888400793   -2.1698558331
H    -3.1021478176    0.3597007096   -2.4119801521
H    -1.7629488707   -0.8596982360   -2.0400333405
H    -3.3476634026    2.0425403118    0.6250371337
H    -3.3549575806    2.2061080933   -1.1816153526
H    -1.8411564827    2.5074546337   -0.2088752389
H    -4.4847059250    0.2630175054    0.2095769495
H    -3.8519771099   -1.1712441444   -0.6738883257
H    -3.4236633778   -0.9123457670    1.0243923664
H    -1.4455875158    1.7822417021    1.7915170193
H    -1.5553144217   -3.0440425873    0.8531967402
H    -0.8111220002   -3.2474148273   -0.7377328277
H     0.2016834915   -3.0966961384    0.8156275153
34

O    -0.2346963882   -0.1806988567    1.6454869509
S    -1.0183798075    0.6415683627    0.2409384549
C    -2.1416158676   -0.4101908803   -0.3907465637
C    -2.1049749851   -0.3950450420   -1.9148149490
C    -3.5853207111   -0.2448230684   -0.0062577906
C    -1.7883014679   -1.8581248522   -0.0211307164
N    -0.4642823339    1.8629179001   -0.2755474746
I     0.3206037283    0.4683073163   -0.6486994028
C     2.3459692001   -0.0737564266   -0.4178268909
C     2.8562037945   -0.9763557911   -1.3559561968
F     2.0668697357   -1.4679166079   -2.3599922657
C     4.1678843498   -1.3914721012   -1.2897690535
F     4.6253795624   -2.2640779018   -2.2132441998
C     4.9495029449   -0.8848069906   -0.2696640193
F     6.2470440865   -1.2844703197   -0.1899093837
C     4.4444780350    0.0155672915    0.6679823995
F     5.2021737099    0.5169870853    1.6701997519
C     3.1322245598    0.4307133555    0.6015695930
F     2.5828981400    1.3049441576    1.4847477674
N    -1.9339755774    1.4054341316    1.3579630852
C    -1.5362647772    2.3538548946    2.3582494259
H    -2.6893165112    0.4822053015   -2.2172927856
H    -2.6137077808   -1.3120179176   -2.2963714600
H    -1.0912994146   -0.3095248640   -2.3193793297
H    -3.8344938755   -0.7974281311    0.9358241558
H    -4.2991495132   -0.5030889511   -0.7943365574
H    -3.7380840778    0.8375995159    0.2283949107
H    -2.4881045818   -2.5369048119   -0.5705193281
H    -0.7548350692   -2.0970432758   -0.2920183837
H    -1.9949855804   -2.0458822250    1.0521121025
H    -0.4673546553    2.9075899124   -0.2987083197
H    -0.4319667816    2.3055138588    2.4472033978
H    -1.7889382839    3.3940711021    2.0732719898
H    -1.9411841631    2.1063549519    3.3782415390
34

O    -0.5392756462   -0.4026683867   -1.5263758898
S    -1.0838063955   -0.5698370337   -0.2772399485
C    -1.9417351484    0.9544303417   -0.0897548273
C    -3.1970481873    0.7415547967    0.7676038146
C    -2.4702515602    1.4741843939   -1.4165078402
C    -1.0013930798    1.8991967440    0.5789273977
N    -1.0435965061   -0.8400059938    1.2516058683
I     0.4101766944   -0.9765669703    0.5792812705
C     2.3336520195   -0.3862741888    0.3038764596
C     2.6928033829    0.5356515646   -0.6867837310
F     1.6988899708    1.0105258226   -1.4468986988
C     4.0063490868    0.9275626540   -0.8618824482
F     4.3125801086    1.8210095167   -1.8307831287
C     4.9925765991    0.4051999748   -0.0484293960
F     6.2610850334    0.8062059879   -0.2435853332
C     4.6749138832   -0.5044489503    0.9368113875
F     5.6630392075   -1.0086399317    1.7296217680
C     3.3617863655   -0.8936281204    1.1088385582
F     3.0807387829   -1.7945495844    2.0917403698
N    -2.2303087711   -1.8183617592   -0.5917456746
C    -1.9982984066   -3.1522943974   -0.1838126630
H    -3.9901716709    1.4571756124    0.5252212286
H    -2.9370918274    0.8964455128    1.8475835323
H    -3.5664069653   -0.2937747538    0.6247788072
H    -2.1921792030    2.5136144161   -1.6204091311
H    -3.5503320694    1.2777917385   -1.5653929710
H    -1.9617649317    0.8574932218   -2.2124400139
H    -1.4263427258    2.4561324120    1.4356307983
H    -0.0646964312    1.4174268246    0.9572113752
H    -0.6405752301    2.6163804531   -0.2102300823
H    -1.8379517794   -0.8792238235    1.8873548508
H    -2.8279063702   -3.7705867290   -0.5732383132
H    -1.0601371527   -3.4844021797   -0.6814863086
H    -1.9273213148   -3.2927193642    0.9093506336
34

O    -0.0982474834   -0.2362195849   -1.5168179274
S    -0.7046890855   -0.4483359754   -0.2217504680
C    -2.2069234848    0.2820441723   -0.3589759171
C    -3.1375803947   -0.5946671963   -1.1767394543
C    -2.0714251995    1.5700900555   -1.1890760660
C    -2.9183495045    0.7144666910    0.8816620111
N    -0.5776800513   -0.5760265589    1.2699539661
I     0.6649734974    0.2549740672    0.6775472760
C     2.6448194981    0.5051166415    0.2126110345
C     3.2036194801    1.7879718542    0.2282536328
F     2.4056968689    2.8359920979    0.5548177958
C     4.5129151344    2.0285165310   -0.0701215565
F     4.9708647728    3.3141236305   -0.0289159417
C     5.3546261787    1.0047461987   -0.4047109187
F     6.6502022743    1.2972539663   -0.6933656335
C     4.8487334251   -0.2785001993   -0.4336345792
F     5.7129406929   -1.2662866116   -0.7694737315
C     3.5208840370   -0.5181260705   -0.1305071115
F     3.0415990353   -1.7734988928   -0.1627295911
N    -0.8236783743   -2.1963996887   -0.4394397736
C    -1.8427989483   -2.9521322250    0.1787483990
H    -2.6048188210   -1.3645876646   -1.7431765795
H    -3.7394812107   -0.0247671716   -1.9151248932
H    -3.9081661701   -1.0256185532   -0.4811377823
H    -1.3721822500    1.3875638247   -2.0486619473
H    -1.6279879808    2.3795423508   -0.5935050845
H    -3.0374815464    1.8774193525   -1.6277011633
H    -3.0470969677   -0.0524360500    1.6545106173
H    -2.3714115620    1.6154512167    1.2575455904
H    -3.9262626171    1.0766910315    0.5875729322
H    -1.2380206585   -0.9866512418    1.9158337116
H    -2.4613075256   -2.3693456650    0.8829369545
H    -2.4667387009   -3.5365302563   -0.5388345718
H    -1.3495451212   -3.7318344116    0.8243086934
34

O    -0.1006521732    0.2183007300   -1.3610259295
S    -0.7538898587    0.3245447576   -0.0923200101
C    -2.2178375721   -0.4997279942   -0.3528118730
C    -3.3134620190    0.5606134534   -0.5143895745
C    -2.6834094524   -1.4305486679    0.7325671315
C    -2.2861526012   -1.3124787807   -1.6304225922
N    -0.6228337884    0.1572040617    1.4473998547
I     0.6234487891   -0.6178597808    0.7602341771
C     2.6328396797   -0.4810555577    0.3491232395
C     3.1557376385   -1.1298582554   -0.7650700212
F     2.3111925125   -1.8484406471   -1.5651748180
C     4.4965171814   -1.0719007254   -1.0883909464
F     4.9424748421   -1.7331333160   -2.1974620819
C     5.3807244301   -0.3552047312   -0.3031037152
F     6.6929392815   -0.3061076105   -0.6307166815
C     4.8618988991    0.2907890081    0.8057091832
F     5.7420454025    0.9882762432    1.5640130043
C     3.5296313763    0.2431506217    1.1416195631
F     3.0737206936    0.8926739097    2.2364237309
N    -0.8735616803    1.9651035070    0.0112291444
C    -1.6692103148    2.7887451649    0.8245807886
H    -3.6624162197    0.9571225047    0.4486279190
H    -4.1977672577    0.0051441244   -0.9394820929
H    -3.0259666443    1.3009541035   -1.2642641068
H    -1.7962813377   -1.7664588690    1.3423501253
H    -3.1703219414   -2.3458099365    0.3734757602
H    -3.3831377029   -0.9493483305    1.4303210974
H    -3.1916351318   -1.1518126726   -2.2244477272
H    -1.4500840902   -0.9250552654   -2.2797734737
H    -2.0689668655   -2.3832423687   -1.4793380499
H    -1.4020807743    0.3488570154    2.0784790516
H    -2.1298878193    2.3237729073    1.7002196312
H    -1.0085602999    3.6127464771    1.2225260735
H    -2.4350554943    3.3300447464    0.2192941010
34

O    -2.4647085667    0.8650668859    1.4989871979
S    -1.3733865023    0.6124220490    0.4208907783
C    -2.2711443901   -0.3376766741   -0.6904655099
C    -2.0580015182   -1.8400161266   -0.4582651556
C    -1.8999676704   -0.1195446327   -2.1492555141
C    -3.7724769115   -0.1344242394   -0.6409438252
N    -1.0265263319    2.0201892853    0.2462667078
I     0.0200615153    0.9472395182   -0.4114587307
C     2.0669097900    0.5983672142   -0.1978333890
C     2.8252949715    1.1122357845    0.8338313103
F     2.2287516594    1.8801859617    1.7582420111
C     4.1911077499    0.8272445798    0.8991617560
F     4.9500970840    1.3245159388    1.9064338207
C     4.7913188934    0.0274453498   -0.0711487979
F     6.1306724548   -0.2513456941   -0.0060980455
C     4.0313792229   -0.4950877428   -1.1161984205
F     4.5778927803   -1.2755088806   -2.0769448280
C     2.6856279373   -0.2023290396   -1.1628632545
F     1.9624122381   -0.7245363593   -2.1943194866
N    -0.5518680811   -0.4837946892    1.5090919733
C    -0.0744465888   -0.0953684971    2.7747006416
H    -1.9974801540   -2.0615670681    0.6200319529
H    -1.1670746803   -2.2156119347   -1.0141676664
H    -2.9285707474   -2.3998737335   -0.8582132459
H    -2.2080967426   -1.0260809660   -2.7350749969
H    -0.8332519531   -0.0116579570   -2.3342823982
H    -2.5109302998    0.7305484414   -2.5516271591
H    -4.1553840637   -0.3870220482    0.3839783669
H    -3.9518606663    0.9490960240   -0.8220012188
H    -4.2119183540   -0.7804748416   -1.4096803665
H    -1.2072325945    3.0058515072    0.5424751639
H    -0.6810391545   -0.6584564447    3.5449872017
H     0.9895367026   -0.3890642822    2.9677910805
H    -0.1056967974    0.9890334010    2.9939720631
34

O    -0.9040263891    0.9786688089   -1.2161364555
S    -1.0090835094    0.3608116210   -0.0618865117
C    -2.3380844593   -0.7532820702   -0.2709558308
C    -2.7671473026   -0.9052237868   -1.7107933760
C    -3.5468547344   -0.3804560304    0.5461287498
C    -1.8744307756   -2.1538045406    0.1505599767
N    -0.7805318832   -0.0429368913    1.4460731745
I     0.5157816410    0.1525229067    0.5088179708
C     2.4736239910    0.0802414715    0.0062665651
C     3.0671148300    1.0230239630   -0.8151121140
F     2.3283700943    2.0551946163   -1.3224117756
C     4.4015383720    0.9578351974   -1.1465988159
F     4.9733037949    1.8890694380   -1.9538333416
C     5.1978936195   -0.0485581160   -0.6734449863
F     6.5230045319   -0.1566155255   -0.9725502133
C     4.6433238983   -1.0027548075    0.1448659152
F     5.3705253601   -2.0418503284    0.6602382064
C     3.3091690540   -0.9395852685    0.4776746035
F     2.7685599327   -1.8964003325    1.2938599586
N    -1.9686014652    1.8856024742    0.7167840004
C    -1.0423475504    2.8234004974    1.2191762924
H    -2.4612457752    0.0177770462   -2.2411100864
H    -3.8430061340   -1.0590817928   -1.8532077074
H    -2.1852262020   -1.7300258875   -2.2129936218
H    -4.4419641495   -0.8757387996    0.1209615245
H    -3.7191085815    0.6977069378    0.5126627684
H    -3.4562582970   -0.6871179938    1.6028101444
H    -1.5827714205   -2.1680757999    1.2286350727
H    -2.6801185608   -2.8657379150   -0.0336378999
H    -0.9990014434   -2.3839313984   -0.4872866273
H    -1.4054431915   -0.2584815621    2.2162134647
H    -1.3074918985    3.8193271160    0.7637342811
H    -1.2708244324    2.9792845249    2.3109130859
H     0.0113589894    2.6291923523    1.0455834866
34

O    -0.0834803879    0.2934407592   -1.4675229788
S    -0.7497215271   -0.2327766716   -0.3230119944
C    -2.1620416641    0.7035014033   -0.2043268234
C    -3.4398734570   -0.0866717324   -0.4272540212
C    -2.2464921474    1.8648712635   -1.1802264452
C    -2.3754587173    1.3866962194    1.1548365355
N    -0.6371807456   -0.6839054823    1.1590251923
I     0.6755917072    0.1779722422    0.7922829986
C     2.6750929356    0.1401775926    0.3480636775
C     3.5330960751    1.1186580658    0.8155557513
F     3.0851073265    2.1330325603    1.5805965662
C     4.8947229385    1.0988463163    0.5169953108
F     5.7465276718    2.0522754192    0.9692111015
C     5.4224371910    0.0845278651   -0.2647156715
F     6.7479777336    0.0437211357   -0.5695546865
C     4.5674152374   -0.9117551446   -0.7446126342
F     5.1081728935   -1.8877210617   -1.5037002563
C     3.2143893242   -0.8688559532   -0.4325764477
F     2.4263615608   -1.8509302139   -0.9171168208
N    -0.9960789084   -1.7952471972   -0.8786558509
C    -1.8927671909   -2.7697384357   -0.4165743291
H    -3.7113013268   -0.7335127592    0.4235774279
H    -3.3462040424   -0.5954331160   -1.3998208046
H    -4.2697377205    0.6417683363   -0.5377035141
H    -2.2126154900    1.5254522562   -2.2269709110
H    -1.4741250277    2.5862979889   -0.8909875751
H    -3.2504286766    2.3357162476   -0.9709208012
H    -1.6272886992    2.1804385185    1.2232748270
H    -3.4192528725    1.8074935675    1.0818901062
H    -2.4110145569    0.6775555015    1.9771515131
H    -1.4167939425   -1.0968858004    1.6681636572
H    -1.3474769592   -3.7491538525   -0.4229062796
H    -2.2534558773   -2.6616475582    0.6155160666
H    -2.7741024494   -2.9282083511   -1.0846500397
34

O    -1.9924668074   -0.2921894491    2.2672355175
S    -1.0393242836   -0.1874255985    0.5154299736
C    -2.3118503094   -0.8715462685   -0.4691172540
C    -3.1126356125   -1.9140855074    0.3178555071
C    -1.5961947441   -1.6366940737   -1.5471621752
C    -3.2840907574    0.1043644175   -1.0210101604
N    -0.4608611166   -1.4922047853    0.9909768701
I     0.4976947308   -0.2850903571    0.5445336103
C     2.4128987789    0.2859193683    0.3169675171
C     2.8340167999    1.6046836376    0.5301378369
F     1.9649833441    2.5766758919    0.9041497707
C     4.1554746628    1.9774379730    0.3689287901
F     4.5588583946    3.2725548744    0.5801120400
C     5.1113624573    1.0650460720   -0.0081260009
F     6.4039707184    1.4376295805   -0.1636998653
C     4.7239489555   -0.2327659279   -0.2229028195
F     5.6195302010   -1.2043143511   -0.6018344164
C     3.4135088921   -0.6190667748   -0.0668231845
F     3.0272774696   -1.9071090221   -0.2803287208
N    -1.3770059347    1.1953380108    0.5486675501
C    -1.0430371761    2.3645324707   -0.1634118110
H    -2.6185960770   -2.9142525196    0.2432383150
H    -4.1635880470   -1.9609850645    0.0303809401
H    -3.0795197487   -1.6395187378    1.4008752108
H    -1.4707891941   -0.9321792126   -2.4204094410
H    -2.1534383297   -2.5035285950   -1.9411613941
H    -0.5820854306   -1.9684268236   -1.2666460276
H    -4.2820792198   -0.3751288056   -1.1605789661
H    -3.4461185932    0.9546487927   -0.3122777343
H    -2.9313871861    0.4417528808   -2.0200819969
H    -0.8535138965   -2.4296162128    1.1786248684
H    -0.6646975875    3.1057219505    0.5974224210
H    -0.3124491572    2.1596169472   -0.9592864513
H    -1.9477969408    2.8202047348   -0.6622043848
34

O    -0.1418195963   -1.4939719439   -0.8269415498
S    -0.8188760877   -0.0960539281   -0.0103410324
C    -2.3090453148   -0.6446902156   -0.2385779768
C    -3.4032194614    0.3354894221    0.1966997087
C    -2.5945327282   -1.9065123796    0.5888537765
C    -2.6564128399   -0.9881286621   -1.6744793653
N    -0.8563382626    0.0404539406    1.3906680346
I     0.5756715536    0.3448378444    0.6947533488
C     2.5280182362    0.1643934101    0.2017313987
C     3.0801534653   -1.0255950689   -0.2472818196
F     2.3266329765   -2.1513109207   -0.3819669783
C     4.4149703979   -1.1431692839   -0.5827537179
F     4.9570159912   -2.3110144138   -1.0234649181
C     5.2650985718   -0.0630849004   -0.4824639857
F     6.5742921829   -0.1130683497   -0.7937269807
C     4.7415175438    1.1342041492   -0.0379587077
F     5.5013389587    2.2562031746    0.0942495912
C     3.4064271450    1.2514873743    0.2974960208
F     2.8840100765    2.4396076202    0.7392378449
N    -0.9075837135    1.1227445602   -1.1985123158
C    -1.0021342039    2.4611020088   -0.7079688907
H    -3.5218124390    1.0452548265   -0.6652480364
H    -3.1544752121    0.8342759609    1.1330726147
H    -4.3520131111   -0.2403556556    0.2222244442
H    -2.8362379074   -1.5647203922    1.6157064438
H    -1.6730086803   -2.5241408348    0.6438216567
H    -3.4610219002   -2.4133598804    0.1510272175
H    -1.7108225822   -1.3805935383   -2.1405818462
H    -3.4030830860   -1.7963317633   -1.7402358055
H    -2.9134185314   -0.0942834914   -2.2459056377
H    -1.4436203241   -0.0219777264    2.2507727146
H    -0.0808588788    2.7653408051   -0.1385670602
H    -1.1889777184    3.1866862774   -1.5130804777
H    -1.8258349895    2.5902819633    0.0403848998
34

O    -2.0442931652    2.0781900883    0.8649193645
S    -0.9730585814    0.1147962213    1.1068459749
C    -1.6737490892    0.0076220487   -0.3725461364
C    -1.2220326662    0.9839048386   -1.4575538635
C    -3.2107200623    0.0246354938   -0.4347166419
C    -1.3289495707   -1.3567702770   -0.9986350536
N    -0.2674114108    1.0356868505    1.9866882563
I     0.4667940438    0.4055649340    0.7018228769
C     2.2294998169    0.0601393320   -0.2125591785
C     3.1322247982    1.0974066257   -0.4842564464
F     2.8531014919    2.3836035728   -0.1401463747
C     4.3353776932    0.8450551629   -1.1109951735
F     5.1948814392    1.8747801781   -1.3628685474
C     4.7015490532   -0.4286713004   -1.4954758883
F     5.8985562325   -0.6084114313   -2.1074669361
C     3.8231093884   -1.4610412121   -1.2348139286
F     4.1998343468   -2.7162542343   -1.6214524508
C     2.6135835648   -1.2272002697   -0.6079724431
F     1.8208146095   -2.3027074337   -0.3960263431
N    -2.1101913452   -0.4697082639    1.9906479120
C    -2.5078225136   -0.1652833223    3.3562629223
H    -0.0967999026    0.9577314854   -1.4971404076
H    -1.5730903149    1.9965978861   -1.2599598169
H    -1.5302190781    0.6039318442   -2.4697911739
H    -3.5722143650   -0.3785202503   -1.4096425772
H    -3.6087491512    1.0260608196   -0.2184656113
H    -3.5801963806   -0.6398360133    0.3818776011
H    -2.0856807232   -1.6700227261   -1.7472347021
H    -0.3783490956   -1.2835373878   -1.5892800093
H    -1.2317292690   -2.1250994205   -0.2078878731
H    -0.4860686064    1.4318990707    2.9107184410
H    -3.2252776623   -0.8877280354    3.7625460625
H    -1.5778815746   -0.0546020269    3.9846649170
H    -2.9848423004    0.8477868438    3.3898932934
34

O    -0.0238426886    0.5524877906    1.3639795780
S    -0.9654583335    0.5038450360   -0.0969820395
C    -2.0952024460   -0.8043538332    0.0391027555
C    -1.7432134151   -2.0135352612   -0.7885085940
C    -3.4820137024   -0.3803224266   -0.4684807360
C    -2.3405895233   -1.2009776831    1.4967725277
N    -0.6433481574    1.2082585096   -1.3092303276
I     0.2855308652   -0.0991192311   -0.9614537954
C     2.3918657303   -0.2584947348   -0.7465432286
C     3.1599707603    0.8581136465   -1.0136238337
F     2.5563385487    2.0194332600   -1.4032973051
C     4.5386981964    0.8382942677   -0.8978011608
F     5.2680106163    1.9490289688   -1.1662511826
C     5.1415772438   -0.3557124734   -0.4985831678
F     6.4933581352   -0.3623139262   -0.3888056874
C     4.3555097580   -1.4588402510   -0.2368986160
F     4.9739913940   -2.6069915295    0.1500524729
C     2.9794361591   -1.4517912865   -0.3487525880
F     2.2073764801   -2.5357697010   -0.0916145444
N    -1.8957142830    1.6468443871    0.5110549927
C    -1.7148156166    3.0369293690    0.7244257927
H    -1.2579261065   -1.6647303104   -1.7109465599
H    -2.6635136604   -2.5645134449   -1.1259167194
H    -1.0598512888   -2.7167298794   -0.2729506791
H    -4.1755547523   -1.2119071484   -0.3602786958
H    -3.4018602371    0.0039579906   -1.5140717030
H    -3.7719848156    0.4843704402    0.1674222052
H    -1.4796640873   -1.7426877022    1.9328277111
H    -2.5399799347   -0.2356424779    2.0123419762
H    -3.2640650272   -1.7980959415    1.5052925348
H    -0.7555684447    2.0870316029   -1.8706896305
H    -1.1498912573    3.2894043922    1.6224782467
H    -1.1780382395    3.4971008301   -0.1326443404
H    -2.7495682240    3.4874286652    0.7036135197
34

O    -0.0952347219   -1.4523152113    0.8010323644
S    -0.8306601644   -0.2297047973   -0.2617457211
C    -2.2957246304   -0.6073750854    0.2362568825
C    -2.4827251434   -0.5340487957    1.7461993694
C    -2.7447271347   -2.0222361088   -0.1500350982
C    -3.3963544369    0.3079105318   -0.3178411126
N    -0.9706946611   -0.3549114764   -1.6096866131
I     0.5247041583    0.0021816762   -1.1329597235
C     2.4805467129    0.0229139272   -0.6680599451
C     3.1139550209   -1.0683530569   -0.0670388788
F     2.4238138199   -2.1919791698    0.2269006073
C     4.4551949501   -1.0529104471    0.2512586415
F     5.0718631744   -2.1125180721    0.8352445364
C     5.2254571915    0.0539498441   -0.0164131913
F     6.5440602303    0.1293693483    0.2717982233
C     4.6326270103    1.1484618187   -0.6089412570
F     5.3603506088    2.2738113403   -0.8944814205
C     3.2930831909    1.1335815191   -0.9270601869
F     2.6998441219    2.2090234756   -1.5118442774
N    -0.7266287208    1.2354272604    0.6885398030
C    -0.8706136346    2.4223110676   -0.0672163814
H    -3.5584149361   -0.7679566145    1.9365808964
H    -2.2242491245    0.4879785478    2.0876939297
H    -1.8257822990   -1.2770562172    2.2177493572
H    -1.9247125387   -2.7053747177    0.1247395054
H    -2.8109586239   -2.0496940613   -1.2630181313
H    -3.7156488895   -2.2669885159    0.3227166831
H    -3.2095642090    0.4926543832   -1.4050407410
H    -4.3598904610   -0.2207577676   -0.1940431446
H    -3.4025361538    1.2418159246    0.2661049664
H    -1.6220841408   -0.5593499541   -2.3896822929
H    -1.3656508923    3.2088017464    0.5657410026
H     0.1132254004    2.8164284229   -0.4458797872
H    -1.5058703423    2.2869091034   -0.9645764232
34

O    -0.2944279313    0.0111518707    1.6196857691
S    -0.9785873294   -0.5734195113    0.4976334572
C    -1.8494617939    0.8182569146   -0.0637597069
C    -2.3755903244    1.6422381401    1.0952012539
C    -3.0521357059    0.4725764394   -0.9035719633
C    -0.9402892590    1.6740055084   -0.8715928793
N    -0.9075533748   -1.1860330105   -0.8929198980
I     0.5607107878   -1.1545753479   -0.2543955445
C     2.4721565247   -0.4769920111   -0.1757906675
C     2.8063724041    0.7891656756    0.3161379397
F     1.8476523161    1.6322419643    0.7695536017
C     4.1173129082    1.2257553339    0.3584167957
F     4.4124388695    2.4586977959    0.8406587243
C     5.1527581215    0.4191302955   -0.0879260227
F     6.4491105080    0.8030727506   -0.0660224035
C     4.8271198273   -0.8143664598   -0.5671598911
F     5.8316388130   -1.6267808676   -1.0126196146
C     3.5363309383   -1.2430558205   -0.6082946658
F     3.2639572620   -2.4762029648   -1.0930470228
N    -1.9970792532   -1.6463794708    1.2628600597
C    -2.6605153084   -2.7776103020    0.7551546097
H    -1.5980447531    1.9096041918    1.8335168362
H    -3.2430267334    1.1584972143    1.5905910730
H    -2.7593073845    2.6002209187    0.6782040000
H    -3.5775218010    1.4506471157   -1.0708417892
H    -3.7930686474   -0.1602409929   -0.3731690347
H    -2.8061139584    0.1262417734   -1.9178570509
H    -0.5213387012    2.4644753933   -0.2220341414
H    -0.1503524035    1.0663398504   -1.3572361469
H    -1.5507197380    2.2256429195   -1.6306284666
H    -1.7095555067   -1.5404099226   -1.4093561172
H    -3.3847224712   -2.5016648769   -0.0392675474
H    -1.9164035320   -3.5177361965    0.3382575512
H    -3.2117438316   -3.2524940968    1.5994706154
34

O    -0.3858403563   -0.0653976649    1.2971352339
S    -0.9868997335   -0.3259413242   -0.0171592478
C    -2.3333296776    0.7874364257    0.0383538119
C    -3.4361076355    0.1125712097    0.8324447870
C    -2.8502078056    1.2324481010   -1.2825725079
C    -1.9401839972    2.0743033886    0.7772504091
N    -0.8269687295   -0.5260840058   -1.4771128893
I     0.5140278339    0.1456248462   -0.8945173025
C     2.4944479465    0.1023953259   -0.3127990365
C     3.1507232189   -1.0350983143    0.1215010434
F     2.4609687328   -2.1905016899    0.1705923378
C     4.4872660637   -0.9675149918    0.4933062792
F     5.1356673241   -2.0818512440    0.9203295112
C     5.1886978149    0.1963613033    0.4457892776
F     6.4904603958    0.3005436063    0.7996622920
C     4.5543723106    1.3452975750    0.0153768444
F     5.2242617607    2.5432929993   -0.0485896766
C     3.2343747616    1.2880649567   -0.3538750112
F     2.6329512596    2.4298708439   -0.7732612491
N    -1.4825863838   -1.8690270185    0.3381716013
C    -1.1783852577   -3.1064090729   -0.2343668491
H    -3.0208439827   -0.4565176368    1.7082382441
H    -3.9200375080   -0.6204069257    0.1545874625
H    -4.1520195007    0.8901028037    1.1812709570
H    -3.6723322868    1.9199421406   -1.1003699303
H    -3.1320440769    0.3471184373   -1.8842320442
H    -2.0023276806    1.7187415361   -1.8435881138
H    -2.7325568199    2.4549705982    1.4199897051
H    -1.0602810383    1.7911571264    1.3963593245
H    -1.5486874580    2.8056631088    0.0399425663
H    -1.4928400517   -0.8755559921   -2.1482100487
H    -1.1361109018   -3.8854701519    0.5550701618
H    -2.0116024017   -3.4084317684   -0.9348088503
H    -0.2660261691   -3.0716986656   -0.8577188253
34

O    -2.0661041737    1.0097038746    2.2673912048
S    -0.9131855369    1.1214755774    0.5477742553
C    -1.8039968014   -0.1316392124    0.1565616429
C    -1.4561774731   -0.6328379512   -1.2575577497
C    -3.3297581673   -0.0134074846    0.1087734029
C    -1.5612753630   -1.3536450863    1.0330051184
N    -0.1494318694    1.9908876419    1.3252261877
I     0.4538867474    0.6570242047    0.6561466455
C     2.0810558796   -0.4508632720    0.2235123068
C     2.8866322041   -0.1719752401   -0.8886414170
F     2.5759217739    0.8777607083   -1.7157526016
C     4.0009331703   -0.9314306974   -1.1840479374
F     4.7682790756   -0.6344492435   -2.2773883343
C     4.3659996986   -2.0014135838   -0.3895853460
F     5.4593095779   -2.7437293530   -0.6824747324
C     3.5870032310   -2.2933564186    0.7100219727
F     3.9256939888   -3.3412702084    1.5069956779
C     2.4695651531   -1.5384306908    1.0135079622
F     1.7581776381   -1.8937537670    2.1139914989
N    -1.9400202036    2.2851715088   -0.2023894340
C    -1.4128324986    3.3907907009   -0.9148419499
H    -1.4040189981    0.2315267175   -1.9357341528
H    -2.1477982998   -1.4275633097   -1.5706779957
H    -0.4133405983   -1.0284025669   -1.1728160381
H    -3.7675268650   -1.0082594156   -0.1699527651
H    -3.6510932446    0.7218092680   -0.6463207603
H    -3.6660678387    0.2599235773    1.1434934139
H    -1.6308774948   -1.0468416214    2.1135659218
H    -2.3621051311   -2.0967969894    0.8697227240
H    -0.5955388546   -1.8390519619    0.7922760844
H    -0.2767739296    2.9060721397    1.7851873636
H    -0.2984342277    3.3040065765   -1.0288393497
H    -1.8930543661    3.4556570053   -1.9067162275
H    -1.5930461884    4.3673081398   -0.4234171212
34

O    -0.2215198874    1.4089460373   -0.5564637780
S    -0.7401469350    0.0432394557    0.2465414256
C    -2.2809119225    0.5414054394    0.3677339554
C    -2.5200767517    1.6555234194    1.3983544111
C    -3.2081682682   -0.5792572498    0.8052599430
C    -2.8950803280    1.0797377825   -0.9239918590
N    -0.5912711024   -0.2930963933    1.6477981806
I     0.6830629110   -0.6057851911    0.6803061366
C     2.6089844704   -0.1194053441    0.1261678338
C     3.5112013817   -1.1203346252   -0.1738909632
F     3.1099328995   -2.4163229465   -0.0977809876
C     4.8211240768   -0.8106207252   -0.5514954329
F     5.7086062431   -1.7924705744   -0.8465674520
C     5.2447900772    0.5120404959   -0.6333734393
F     6.5242037773    0.7952898741   -1.0028092861
C     4.3333172798    1.5207141638   -0.3303182423
F     4.7544918060    2.8039712906   -0.4127512574
C     3.0349299908    1.2051438093    0.0436837934
F     2.1706998348    2.2044019699    0.3324644864
N    -1.1416186094   -1.1578674316   -0.9705895782
C    -1.1964190006   -2.5261790752   -0.6253162026
H    -3.4522919655    2.1884143353    1.2087441683
H    -1.6158312559    2.2913253307    1.4555617571
H    -2.5964233875    1.1649569273    2.3921554089
H    -3.4336986542   -1.1480592489   -0.1019258425
H    -4.1851978302   -0.1807609648    1.1835033894
H    -2.6687843800   -1.1937544346    1.5517632961
H    -2.5768034458    2.1460299492   -0.9894891381
H    -2.5804305077    0.4585117102   -1.7643628120
H    -3.9819281101    1.0976229906   -0.7641941905
H    -1.0171446800   -0.2659823895    2.6018540859
H    -2.1552033424   -3.0164635181   -0.8984622359
H    -0.4194128215   -3.1358008385   -1.1740045547
H    -1.0269817114   -2.7551140785    0.4439865053
34

O    -0.8979157209   -1.2876909971   -1.5537546873
S    -0.8848978281    0.2077475637   -0.2864137292
C    -2.4280402660    0.6612946391   -0.2049115598
C    -3.1388356686    0.2340961993    1.0829187632
C    -3.2852880955    0.0679424405   -1.3241755962
C    -2.6056957245    2.1750156879   -0.2906708717
N    -0.5134412646    1.0361626148   -1.6005415916
I     0.6047833562    1.1056846380   -0.4208511710
C     2.4812426567    0.2547796965   -0.0496776961
C     3.3767495155    0.9982215762    0.7173651457
F     3.0798530579    2.2050378323    1.2088613510
C     4.6393961906    0.4875170290    0.9988655448
F     5.5251889229    1.2114405632    1.7517083883
C     5.0116004944   -0.7696934938    0.5139294863
F     6.2519450188   -1.2491565943    0.8018590212
C     4.1151580811   -1.5138691664   -0.2538918555
F     4.4489574432   -2.7254078388   -0.7319216132
C     2.8601152897   -0.9861224890   -0.5233723521
F     1.9794654846   -1.6978672743   -1.2677441835
N    -0.6000007391   -0.6313669682    0.7375560403
C    -0.2157079130   -1.9179185629    1.1681170464
H    -2.5242550373    0.5518075824    1.9444526434
H    -3.2681491375   -0.8864042759    1.0751228333
H    -4.1608495712    0.6532054543    1.1555837393
H    -3.0135197639   -0.9998725057   -1.4241865873
H    -3.1151292324    0.6187533140   -2.2673537731
H    -4.3544034958    0.1459118724   -1.0378780365
H    -2.9156243801    2.6161773205    0.6932535768
H    -1.6580382586    2.6687417030   -0.6108540297
H    -3.3923926353    2.4661388397   -1.0100202560
H    -1.0443097353    1.2100378275   -2.4547059536
H    -1.0297729969   -2.4393477440    1.7499595881
H    -0.0445939004   -2.5922327042    0.2793010771
H     0.7164057493   -1.8787640333    1.7822409868
34

O    -0.1573836058    0.8574145436   -1.1636002064
S    -0.8125315309   -0.2265070379   -0.0910685211
C    -2.2064070702    0.6225289106    0.0500057712
C    -2.8349275589    1.1514525414   -1.2352683544
C    -2.1294181347    1.8626749516    0.9611483812
C    -3.3155975342   -0.2232378870    0.6534162760
N    -0.5958426595   -0.3752192259    1.3575950861
I     0.6159624457   -0.8359023929    0.3691237271
C     2.6407051086   -0.2314642072    0.1938095391
C     2.9964141846    1.0886312723    0.4103768170
F     2.0442888737    1.9948307276    0.7354274988
C     4.3320574760    1.4153368473    0.2800355554
F     4.6865611076    2.7182939053    0.4932733774
C     5.2624654770    0.4457705319   -0.0547174141
F     6.5489087105    0.8184931278   -0.1684259772
C     4.8995556831   -0.8809727430   -0.2715763450
F     5.8137001991   -1.8333705664   -0.6004415154
C     3.5544371605   -1.2094190121   -0.1401941180
F     3.1483371258   -2.5048627853   -0.3443140686
N    -1.4836201668   -1.5685254335   -0.9916695952
C    -1.5441572666   -2.8104145527   -0.2531668842
H    -3.6114716530    1.8524008989   -0.9484093189
H    -3.1636483669    0.3370886445   -1.9014039040
H    -2.0034418106    1.6798601151   -1.7645059824
H    -2.9937975407    2.5368432999    0.8063991666
H    -1.1899722815    2.4034399986    0.8045479059
H    -2.2064733505    1.4994285107    2.0224330425
H    -2.9907932281   -0.7486767769    1.5638005733
H    -4.1178078651    0.4772564471    0.9722127914
H    -3.7068345547   -0.8818271756   -0.1313481182
H    -0.8960849047   -0.0511473157    2.3059363365
H    -1.7310276031   -3.6711156368   -0.9179422855
H    -0.5622654557   -2.8978335857    0.2756907046
H    -2.2898893356   -2.8112483025    0.5550729036
34

O    -2.0157725811    0.0039542858    2.4742164612
S    -0.9475785494   -0.7260701656    0.8571682572
C    -1.8517153263    0.3025733531    0.0537203550
C    -1.6606781483    0.1387478709   -1.4669520855
C    -1.4877029657    1.7525523901    0.3395266533
C    -3.3862314224    0.2654844820    0.1662202030
N    -0.1928141713   -1.3221243620    1.8479818106
I     0.4006734490   -0.3062518537    0.7375051975
C     2.1307673454    0.4001056850   -0.0275177658
C     2.5054597855    1.7335684299    0.1006872877
F     1.6911232471    2.5898070335    0.7567223907
C     3.6847703457    2.2221996784   -0.4190050364
F     4.0044431686    3.5399920940   -0.2648037076
C     4.5448098183    1.3841681480   -1.0953525305
F     5.7156257629    1.8029885292   -1.6278508902
C     4.1949777603    0.0440525115   -1.2387337685
F     5.0228619576   -0.8247417808   -1.9052765369
C     3.0260751247   -0.4251571298   -0.7198640108
F     2.6822941303   -1.7473998070   -0.8620876074
N    -2.0577800274   -2.0514080524    0.5916727781
C    -1.4755824804   -3.2611138821    0.1462019831
H    -0.6168168783    0.2619870007   -1.7587058544
H    -2.3722915649    0.8098937869   -1.9859594107
H    -2.0187771320   -0.9139549732   -1.6628727913
H    -1.0015537739    1.7728381157    1.3365201950
H    -2.3384864330    2.4450495243    0.2535764873
H    -0.7040332556    2.0794897079   -0.3799957633
H    -3.6820929050    0.0755052119    1.2167527676
H    -3.8353900909    1.2134505510   -0.1882516742
H    -3.7868952751   -0.5461226106   -0.4694139957
H    -0.3086443543   -2.0200242996    2.5982928276
H    -2.1889603138   -4.0893502235    0.2411352992
H    -1.1238138676   -3.1672637463   -0.9141255617
H    -0.5502703190   -3.4374256134    0.7482346892
34

O    -0.5359580517    0.8547945023   -1.0304937363
S    -0.9849568605    0.2836802304    0.1743111759
C    -2.3926732540   -0.5658532977   -0.3207026422
C    -2.7643980980   -1.7787282467    0.4493799806
C    -2.3387966156   -0.9967989326   -1.7910578251
C    -3.5847103596    0.3985336721   -0.2520330846
N    -0.8366605639   -0.2593021095    1.5776058435
I     0.4921700656   -0.4180539846    0.6920486093
C     2.4622826576   -0.3586663306    0.2578960955
C     3.2038331032    0.8147118092    0.2453892678
F     2.6092994213    1.9973950386    0.5338164568
C     4.5582895279    0.8274530768   -0.0567327365
F     5.2296423912    1.9803525209   -0.0561911315
C     5.2213673592   -0.3331395984   -0.3575875461
F     6.5447120667   -0.3236409724   -0.6531488895
C     4.5094709396   -1.5144942999   -0.3527792990
F     5.1069574356   -2.7129130363   -0.6438803077
C     3.1814351082   -1.5160578489   -0.0551251508
F     2.4988954067   -2.6846196651   -0.0552652143
N    -1.5700522661    1.8554476500    0.8856683373
C    -0.6770876646    2.9409484863    0.9440559745
H    -3.2725753784   -1.5342415571    1.4070799351
H    -1.9099775553   -2.4599633217    0.6377862692
H    -3.5084350109   -2.3402481079   -0.1533966959
H    -3.2269382477   -1.5948095322   -2.0127880573
H    -1.3907020092   -1.5891048908   -1.8976395130
H    -2.2332737446   -0.0674541444   -2.3765780926
H    -3.6895916462    0.6643697023    0.8120740652
H    -3.3332087994    1.2716039419   -0.8836028576
H    -4.4577870369   -0.1698594093   -0.6347933412
H    -1.5641355515   -0.4490201175    2.2532763481
H    -1.2594505548    3.8674612045    0.6642001867
H    -0.1588504910    3.0780169964    1.9109722376
H     0.0718648136    2.8322005272    0.1382351816
34

O    -2.4301102161    1.3574385643    0.8719484806
S    -1.1747510433    0.3703926504    0.6235448122
C    -2.2440478802   -0.9519167542    0.0509754010
C    -3.1813824177   -0.4036300778   -1.0232555866
C    -2.9924693108   -1.4317615032    1.2678741217
C    -1.4490615129   -2.0647768974   -0.5790811181
N    -0.7597137094    0.4352302253    2.0277285576
I     0.1689134389   -0.3771195412    0.9517315030
C     2.1663634777   -0.1011101231    0.3314790726
C     2.7250316143   -0.8363894224   -0.6815598607
F     2.0042643547   -1.7705129385   -1.3200864792
C     4.0385789871   -0.6581997871   -1.0928775072
F     4.5452966690   -1.4194214344   -2.1091952324
C     4.8238081932    0.2953899801   -0.4634627104
F     6.1025457382    0.4866451621   -0.8455420136
C     4.2685446739    1.0525614023    0.5706467032
F     5.0456714630    1.9937967062    1.1909884214
C     2.9579544067    0.8580073714    0.9637167454
F     2.4010801315    1.5874259472    1.9699076414
N    -0.6628836393    1.2644057274   -0.6958193779
C    -0.4803310037    2.6580917835   -0.7941042781
H    -4.1544985771   -0.9192647934   -0.8869553804
H    -2.8318679333   -0.6453607678   -2.0472567081
H    -3.3582191467    0.6816098094   -0.8923540711
H    -3.6672027111   -0.6257886291    1.6191732883
H    -2.2273931503   -1.5826066732    2.0629189014
H    -3.5416491032   -2.3567619324    1.0289050341
H    -0.8778207302   -2.6084597111    0.2019383609
H    -2.1758141518   -2.6946055889   -1.1005253792
H    -0.6919367909   -1.6402610540   -1.2781615257
H    -0.8484703302    0.8972129822    2.9596335888
H     0.0210447237    3.1193411350    0.0833761394
H    -0.0202613194    2.9040541649   -1.7542334795
H    -1.4992127419    3.1263444424   -0.8133540154
34

O     0.0391101390    0.2457320541   -1.7659543753
S    -0.8113611937   -0.5901885629   -0.3739403784
C    -1.9172751904    0.5264418125    0.2250474840
C    -3.1502628326   -0.2121538818    0.7087451816
C    -2.4472534657    1.5013281107   -0.8364358544
C    -1.4549416304    1.4116948843    1.3610237837
N    -0.3288654983   -1.8245165348    0.1154693887
I     0.4675305188   -0.4593169987    0.5683368444
C     2.5120179653    0.0375722982    0.4169501364
C     3.3903412819   -0.7986516953   -0.2810120583
F     2.9358470440   -1.9349980354   -0.8659179807
C     4.7396569252   -0.4654718637   -0.3777578771
F     5.5997691154   -1.2752902508   -1.0557826757
C     5.2282843590    0.6939003468    0.2135178894
F     6.5385928154    1.0065642595    0.1129930988
C     4.3441934586    1.5200847387    0.9066970944
F     4.8154716492    2.6686239243    1.4952795506
C     2.9967150688    1.1846832037    1.0016994476
F     2.1356313229    1.9878245592    1.6758973598
N    -1.7750573158   -1.2257157564   -1.5071854591
C    -2.6612432003   -2.3236582279   -1.5083066225
H    -3.7721629143   -0.4412005544   -0.1541597247
H    -3.7316448689    0.5010930896    1.3569762707
H    -2.8136250973   -1.0823259354    1.3086555004
H    -1.6964606047    2.2388715744   -1.1233737469
H    -3.3253622055    1.9982993603   -0.3624818027
H    -2.8359746933    0.9216043949   -1.7024195194
H    -0.9255322218    0.8465785384    2.1338100433
H    -0.7986582518    2.2205920219    0.9658494592
H    -2.3853368759    1.9031596184    1.7429020405
H    -0.3978034258   -2.8665113449    0.0995660201
H    -2.7096745968   -2.7176065445   -0.4734867513
H    -3.6459600925   -2.0633561611   -1.9184039831
H    -2.1587049961   -3.1336863041   -2.1027977467
34

O    -2.1229243279   -0.4061101675   -2.3671667576
S    -1.1123778820    0.6030655503   -0.8699584603
C    -1.8626377583   -0.4543020725    0.0435586646
C    -1.4350619316   -1.8926054239   -0.1910764277
C    -3.4008636475   -0.4789293408    0.0053046783
C    -1.5636969805   -0.2004965842    1.5306394100
N    -0.3647918701    1.0580090284   -1.9806882143
I     0.3234732747    0.2596078813   -0.7578949332
C     2.1432511806   -0.2553741336   -0.0424245745
C     2.9521880150    0.6712924242    0.6245327592
F     2.4864943027    1.9450061321    0.7862346172
C     4.1880774498    0.3515096605    1.1194934845
F     4.9369978905    1.2945100069    1.7626595497
C     4.6971969604   -0.9210898280    0.9789308906
F     5.9119029045   -1.1799223423    1.4821745157
C     3.9223842621   -1.8673005104    0.3224099576
F     4.4456295967   -3.1101493835    0.1976107955
C     2.6688420773   -1.5309435129   -0.1759981662
F     1.9879844189   -2.5148363113   -0.7989315391
N    -2.2288327217    1.8472797871   -0.7216207981
C    -1.7013610601    3.1726734638   -0.5407555103
H    -1.4031577110   -2.1452631950   -1.2545853853
H    -2.1806535721   -2.5463550091    0.3093425632
H    -0.4436540902   -2.0732960701    0.2882146537
H    -3.7135305405   -0.3074383736   -1.0640009642
H    -3.8452253342    0.3264886439    0.6025134921
H    -3.7923722267   -1.4967831373    0.2376257032
H    -0.6200429797    0.4012169838    1.6389024258
H    -2.3633875847    0.3823311627    2.0147781372
H    -1.4115843773   -1.1180522442    2.1025738716
H    -0.5460572243    1.6822758913   -2.7782380581
H    -0.7861243486    3.1315360069    0.1161792353
H    -1.3076092005    3.5108485222   -1.5215519667
H    -2.4584748745    3.8615963459   -0.1106856391
34

O    -1.6439540386   -1.6568387747    1.6237156391
S    -0.9166919589   -0.3763005137    0.4016656578
C    -2.3994576931    0.4915962517   -0.0179008283
C    -3.1871509552   -0.1703969091   -1.0985522270
C    -1.9480156898    1.8609285355   -0.3957817256
C    -3.3309390545    0.5331115723    1.2023973465
N    -0.6393663883    0.4514827728    1.6782710552
I     0.5817237496    0.1789602637    0.6747034788
C     2.4888825417    0.2305033952   -0.0091201458
C     3.1989185810   -0.9068539143   -0.3710605502
F     2.6437509060   -2.1230111122   -0.2834989727
C     4.5070166588   -0.8343630433   -0.8366283774
F     5.2070417404   -1.9474914074   -1.1926995516
C     5.1476497650    0.3734038174   -0.9558137059
F     6.4199867249    0.4994429052   -1.4034993649
C     4.4645743370    1.5115194321   -0.6035337448
F     5.0323319435    2.7520506382   -0.6933344007
C     3.1785848141    1.4372597933   -0.1461184025
F     2.5067617893    2.5832915306    0.2028597593
N    -0.7935956717   -1.3020628691   -0.5872960091
C    -0.7043250799   -2.6752896309   -0.9088482261
H    -3.2914791107   -1.2490614653   -0.7963535786
H    -2.7690210342   -0.0402824581   -2.1054363251
H    -4.2231769562    0.2360276878   -1.0297185183
H    -2.6111376286    2.6649076939   -0.0395391174
H    -1.9100438356    1.9863650799   -1.5146555901
H    -0.9132536054    2.1206569672   -0.0700690821
H    -3.2082037926    1.5309514999    1.6705952883
H    -4.3961887360    0.4570041597    0.9110910296
H    -3.1204843521   -0.2651612461    1.9211975336
H    -1.2402831316    0.8592069745    2.3931460381
H    -1.4500982761   -2.9137611389   -1.7147685289
H     0.2793048620   -2.9282970428   -1.3093795776
H    -0.9596604705   -3.3694994450   -0.0809222609
34

O    -0.4456562996   -1.4094171524   -0.7723397017
S    -1.0560783148   -0.6084761024    0.1834459752
C    -1.8064137697    0.6104557514   -0.7126231194
C    -3.3238792419    0.4082730412   -0.5731900930
C    -1.5648274422    0.5728693008   -2.2161853313
C    -1.5152112246    2.0255899429   -0.3153957427
N    -1.1058202982    0.1117195413    1.5507638454
I     0.3723676205   -0.4415740371    1.2439329624
C     2.2809677124   -0.1283768713    0.5970149636
C     3.2545084953   -1.1184712648    0.7691738009
F     2.9446594715   -2.2958111763    1.3661258221
C     4.5530500412   -0.9504819512    0.3487347662
F     5.4997425079   -1.9115101099    0.5153877139
C     4.9555058479    0.2139150947   -0.2673218250
F     6.2203030586    0.4245362282   -0.6973599792
C     4.0197906494    1.2055895329   -0.4502808750
F     4.3989310265    2.3496317863   -1.0512260199
C     2.7156591415    1.0270305872   -0.0237313416
F     1.8527569771    2.0259604454   -0.2293062955
N    -2.2869908810   -1.7924963236    0.6996384859
C    -2.0132334232   -2.6262402534    1.8044412136
H    -3.7347469330   -0.1634783149   -1.4322475195
H    -3.8393292427    1.3902695179   -0.5609592795
H    -3.5604622364   -0.1810873449    0.3408485055
H    -1.8644788265   -0.3889513910   -2.6577401161
H    -0.5140508413    0.8670369983   -2.4475460052
H    -2.1818020344    1.4232964516   -2.6167995930
H    -0.7063903809    2.4619259834   -0.9709858298
H    -2.4033086300    2.6459267139   -0.5577944517
H    -1.2911138535    2.1549575329    0.7543010712
H    -1.9261215925    0.5288618803    1.9832099676
H    -2.3007464409   -2.0397138596    2.7222123146
H    -2.6796603203   -3.4873330593    1.7433394194
H    -0.9479200244   -2.9044275284    1.9304623604
34

O    -0.3845349252    0.0261663776    1.2246994972
S    -1.0498155355   -0.2261304110   -0.0397777408
C    -2.2516736984    1.0188918114   -0.0397458561
C    -2.9229488373    0.9985036254    1.3409337997
C    -3.3183679581    0.8968208432   -1.0619591475
C    -1.5335032940    2.3248193264   -0.1301524043
N    -1.0495474339   -0.5502654910   -1.4760630131
I     0.4299151003   -0.1640627831   -0.9789533615
C     2.4200370312   -0.2326153815   -0.5320864916
C     3.1086754799   -1.3861007690   -0.1699910015
F     2.4166305065   -2.5553684235   -0.1063286066
C     4.4472465515   -1.3920574188    0.1232298091
F     5.1007409096   -2.5409479141    0.4767990410
C     5.1624717712   -0.2252821624    0.0650700629
F     6.4894008636   -0.1439470649    0.3397141695
C     4.5296559334    0.9447393417   -0.2878833711
F     5.1945843697    2.1271739006   -0.3599039614
C     3.1913630962    0.9341109395   -0.5779971480
F     2.5781459808    2.1124439240   -0.9281823039
N    -1.7819693089   -1.7074345350    0.4902131259
C    -1.3181809187   -2.9622986317    0.0848358795
H    -3.3360722065   -0.0156158330    1.4773818254
H    -3.6424841881    1.8126928806    1.4657526016
H    -2.0885679722    1.0869157314    2.0786890984
H    -3.7134439945    1.9367122650   -1.2535022497
H    -4.1804714203    0.3418754041   -0.6388253570
H    -3.0445394516    0.5162498951   -2.0406968594
H    -1.3538770676    2.5948355198   -1.1781450510
H    -2.1044137478    3.1485946178    0.3676228821
H    -0.5511733294    2.2273421288    0.4087256789
H    -1.7101575136   -1.0261809826   -2.0837149620
H    -2.0840222836   -3.3977262974   -0.6193252206
H    -0.3334617913   -2.8699455261   -0.3792573512
H    -1.3156411648   -3.6529092789    0.9581473470
34

O    -1.7123999596   -0.8047519326    2.2704560757
S    -0.8897466660   -0.0121311136    0.4866273403
C    -2.2857477665    0.7835952640   -0.0044683861
C    -2.9809527397    0.1516077220   -1.2108497620
C    -1.9100570679    2.2049593925   -0.4466312528
C    -3.3509931564    0.9632595778    1.0538964272
N    -0.4500202835    1.0241371393    1.5369929075
I     0.6414979696    0.2213341445    0.6627608538
C     2.5562925339   -0.0981315598    0.0968759283
C     3.3442440033    0.9381408095   -0.4197476506
F     2.8046462536    2.1742973328   -0.5387725830
C     4.6421985626    0.7530123591   -0.8109781146
F     5.3488454819    1.8135560751   -1.3061858416
C     5.2341337204   -0.4662683010   -0.7136322260
F     6.5259380341   -0.5802407861   -1.1200994253
C     4.5030131340   -1.5173579454   -0.2125102878
F     5.1330060959   -2.7223992348   -0.1314404160
C     3.2036578655   -1.3326765299    0.1792962849
F     2.5049839020   -2.4004561901    0.6735677719
N    -1.0633548498   -1.3304693699    0.0217592437
C    -1.2231997252   -2.7245590687    0.1855784059
H    -3.0436525345    0.8157138228   -2.0718371868
H    -3.9376695156   -0.3095985055   -0.9313071370
H    -2.3129575253   -0.7032945156   -1.5110964775
H    -1.1234230995    2.1582937241   -1.2280939817
H    -1.6145757437    2.8085625172    0.4257041216
H    -2.8463444710    2.6532895565   -0.8390117884
H    -4.3142323494    1.2317698002    0.5846757293
H    -3.4195733070    0.0062352913    1.6319309473
H    -3.1196529865    1.7821668386    1.7613569498
H    -0.9117103219    1.7261390686    2.1172387600
H    -1.2744098902   -3.1430282593   -0.8357656002
H    -0.4315740466   -3.1615896225    0.8059457541
H    -2.2262101173   -2.9031174183    0.6745989323
34

O    -2.3093364239   -0.3419211209    1.8760594130
S    -1.1881339550    0.4988130331    0.7894409299
C    -1.3954639435   -0.4906282127   -0.3746696711
C    -0.8186948299   -0.0017088582   -1.7162084579
C    -2.8536593914   -0.8338298202   -0.7174392343
C    -0.7187109590   -1.8442784548   -0.1873213351
N    -0.7621352673    1.4384666681    1.7351009846
I     0.3537432551    0.6393799782    0.8920879364
C     2.2109220028    0.1514341235    0.2558859289
C     2.8666236401   -1.0111551285    0.6414595842
F     2.2562615871   -1.8769111633    1.4827346802
C     4.1326837540   -1.3330187798    0.2011654973
F     4.7711353302   -2.4758749008    0.5832839608
C     4.8179225922   -0.4991395175   -0.6582527757
F     6.0529055595   -0.7515393496   -1.1256810427
C     4.1888613701    0.6624194980   -1.0566315651
F     4.8310446739    1.5216908455   -1.9099794626
C     2.9221093655    0.9846587181   -0.6162204742
F     2.3751792908    2.1515929699   -1.0593557358
N    -2.3691110611    1.7228251696    0.0155076012
C    -3.4784457684    2.0641593933    0.8224668503
H     0.2856673300   -0.0883611515   -1.6456209421
H    -1.0774108171    1.0405113697   -1.9266945124
H    -1.2278254032   -0.6351507902   -2.5142049789
H    -3.2155349255   -0.0057130833   -1.3517658710
H    -3.4095981121   -0.7678322792    0.2431503832
H    -2.9506740570   -1.8180317879   -1.1879358292
H     0.3333967030   -1.7815283537   -0.5411819816
H    -0.7557759285   -2.0854947567    0.9091211557
H    -1.2525594234   -2.6480016708   -0.7099033594
H    -1.2329747677    2.0319578648    2.4159152508
H    -3.6316814423    3.1554632187    0.7339755893
H    -4.3752794266    1.5181427002    0.4152868986
H    -3.3754508495    1.7086037397    1.8657026291
34

O    -0.6128761768   -0.2851092517   -1.4527305365
S    -1.0300589800    0.3356412947   -0.2015120536
C    -2.1109676361   -0.9107645750    0.3401972055
C    -3.2017171383   -0.9988086820   -0.7408117652
C    -2.8401360512   -0.6623585224    1.6076723337
C    -1.4678918123   -2.2665183544    0.3695803583
N    -0.8772619963    1.0896071196    1.0383841991
I     0.5166658759    0.7371583581    0.3495262861
C     2.4748620987    0.3364810348    0.1561407298
C     3.0209636688   -0.9079030752    0.4631420672
F     2.2249593735   -1.9186198711    0.9157521725
C     4.3628344536   -1.1800408363    0.3298373222
F     4.8401079178   -2.4212269783    0.6471146941
C     5.2357311249   -0.2202967107   -0.1191319823
F     6.5460891724   -0.5295261145   -0.2354477644
C     4.7255010605    1.0175043344   -0.4299167395
F     5.5998125076    1.9609999657   -0.8739436269
C     3.3950288296    1.2849264145   -0.2969776392
F     2.9609611034    2.5329680443   -0.6235184073
N    -2.0723123550    1.5456984043   -0.9972107410
C    -1.6860747337    2.8814001083   -1.1395791769
H    -3.5383777618    0.0067862114   -1.0602381229
H    -4.1031627655   -1.4811981916   -0.3066099286
H    -2.8723342419   -1.5719257593   -1.6115987301
H    -3.6139230728   -1.4228866100    1.7008326054
H    -3.3478026390    0.3394807279    1.5767456293
H    -2.0920529366   -0.6667445302    2.4365167618
H    -0.4643611014   -2.2459228039    0.8183132410
H    -2.1573648453   -2.9314682484    0.9400528669
H    -1.3787237406   -2.6996819973   -0.6467968822
H    -1.6150974035    1.4126157761    1.6572825909
H    -0.9578087926    3.1527984142   -0.3384499550
H    -1.2800204754    3.1622891426   -2.1293702126
H    -2.5831899643    3.5246460438   -0.9299895167
34

O    -0.3854923546   -0.6612821817    0.8509376049
S    -0.7715330124    0.1845511496   -0.5145796537
C    -2.1495130062    0.7864851952    0.1532829106
C    -3.1152594090   -0.2808731794    0.6758828759
C    -3.0002293587    1.6327782869   -0.7934226394
C    -1.8693895340    1.6779534817    1.3608708382
N    -0.3170402944    1.3941919804   -1.0722247362
I     0.6267963648    0.0631170347   -1.2689943314
C     2.5921194553   -0.2901673317   -0.5334561467
C     2.9082434177   -1.4438601732    0.1359162480
F     1.9504377842   -2.3607749939    0.3246184886
C     4.2069406509   -1.6278234720    0.5970962644
F     4.5503721237   -2.7482547760    1.2575082779
C     5.1859197617   -0.6522044539    0.3849248588
F     6.4567937851   -0.8209826350    0.8305500150
C     4.8337612152    0.5027248859   -0.2953015864
F     5.7817230225    1.4495435953   -0.5018112659
C     3.5470800400    0.6859529018   -0.7527000904
F     3.2091932297    1.8291440010   -1.4229785204
N    -1.7168135643   -0.9707641006   -1.5535371304
C    -1.7428560257   -2.3287854195   -1.0952545404
H    -3.8385257721    0.2714433074    1.3116790056
H    -2.6019268036   -1.0721375942    1.2282521725
H    -3.6751623154   -0.6264188886   -0.2085092366
H    -3.5049617290    2.4504454136   -0.2694948614
H    -3.7069702148    0.9625098705   -1.3197234869
H    -2.3550672531    2.0491786003   -1.6087485552
H    -1.7478352785    2.7245793343    1.0297447443
H    -2.7347471714    1.6670993567    2.0664360523
H    -1.0199077129    1.2971820831    1.9399946928
H    -0.4088830054    2.4341905117   -1.0938938856
H    -1.2386718988   -3.0104951859   -1.8356831074
H    -1.1897851229   -2.4471218586   -0.1425369233
H    -2.7588095665   -2.7211246490   -0.9595810771
34

O    -0.1905891001   -0.7072731256    1.4550315142
S    -0.9566700459    0.1697870791   -0.0410864651
C    -2.2805442810   -0.8363168836    0.2779411077
C    -2.9502542019   -0.5608841181    1.6283681393
C    -1.9962484837   -2.3244533539    0.2663387358
C    -3.3934643269   -0.6262834668   -0.7526922822
N    -0.6738129258   -0.4630751610   -1.2844860554
I     0.4513951242    0.5256148577   -0.6208885312
C     2.4671323299    0.3851078153   -0.1727295965
C     3.3925747871    0.3941842914   -1.2213953733
F     2.9910643101    0.4929948449   -2.5177221298
C     4.7517724037    0.3035801649   -0.9901400805
F     5.6189799309    0.3164089024   -2.0463275909
C     5.2230553627    0.2008310407    0.3059403598
F     6.5573291779    0.1149383485    0.4810853601
C     4.3227453232    0.1892331243    1.3733525276
F     4.8148751259    0.0875239819    2.6315605640
C     2.9738101959    0.2816067040    1.1019608974
F     2.1115148067    0.2696236074    2.1387996674
N    -1.5784004927    1.4926786423    0.5132443309
C    -1.1878930330    2.8543303013    0.2963434458
H    -2.6025102139   -1.2487312555    2.4126746655
H    -4.0608625412   -0.7270929813    1.5719151497
H    -2.8302190304    0.5226541758    1.9083061218
H    -1.0189871788   -2.4659857750    0.7665925026
H    -1.8950530291   -2.7031373978   -0.7705610991
H    -2.7989940643   -2.8500826359    0.8285651803
H    -3.7517676353    0.4222039878   -0.7661464214
H    -3.0748944283   -0.9246385694   -1.7583330870
H    -4.2499694824   -1.2774161100   -0.4732029140
H    -1.0006046295   -1.0340132713   -2.0941414833
H    -0.0683121979    2.9806408882    0.3653101325
H    -1.4821426868    3.1734712124   -0.7376147509
H    -1.6340548992    3.5719704628    1.0059018135
34

O    -2.3231961727    0.3798192143   -2.0632665157
S    -1.1349658966   -0.0963188037   -1.1178038120
C    -2.2137207985   -0.5596456528    0.2063623816
C    -2.8414609432   -1.8647226095   -0.2490530610
C    -3.3177664280    0.4422323704    0.4353429079
C    -1.4719278812   -0.8589969277    1.4833292961
N    -0.6487155557   -1.0880975723   -2.1000509262
I     0.2199483365   -0.8555461764   -0.7349959016
C     2.1563589573   -0.1979374737   -0.2888354659
C     2.8240408897   -0.8384186029    0.7513675094
F     2.2168319225   -1.8542929888    1.4390020370
C     4.1041893959   -0.4758026302    1.1200437546
F     4.6974973679   -1.1482716799    2.1499843597
C     4.7530465126    0.5437085032    0.4527609944
F     6.0163102150    0.9093379378    0.8085646629
C     4.0649561882    1.1623574495   -0.5769164562
F     4.6882977486    2.1653375626   -1.2420601845
C     2.7958843708    0.8146604896   -0.9544487000
F     2.1298027039    1.4385025501   -1.9767091274
N    -0.6211655140    1.4840645790   -0.9042561054
C    -0.4554388821    2.1738283634    0.3039953709
H    -2.1908800602   -2.7250373363    0.0861846060
H    -2.9096624851   -1.9659240246   -1.3418389559
H    -3.8136215210   -2.0454473495    0.2457383871
H    -3.2898077965    1.2484179735   -0.3423815668
H    -3.3139512539    0.8995459080    1.4409946203
H    -4.3180336952   -0.0241468530    0.3060956299
H    -2.1166691780   -0.5308176875    2.3265314102
H    -1.2968853712   -1.9474925995    1.6127544641
H    -0.4631975293   -0.3972104490    1.5044519901
H    -0.7152837515   -1.4860199690   -3.0611994267
H    -1.1340872049    1.8873639107    1.1257175207
H     0.6113078594    2.1555619240    0.6073113680
H    -0.6880354881    3.2554090023    0.0908151567
34

O    -1.7616242170   -0.5800154805   -1.9728609324
S    -0.9199975729   -0.5114675760   -0.2073545009
C    -2.2590339184   -0.5736907125    0.5757728815
C    -2.1764411926   -0.8104532361    2.0842850208
C    -3.3024270535   -1.6595975161    0.2175691426
C    -3.1542024612    0.6628745198    0.5061866641
N    -0.3956525922   -1.8311864138    0.0593831353
I     0.5601204634   -0.9208331108   -0.8740550876
C     2.5074098110   -0.1218776256   -0.5643811822
C     3.5003473759   -0.6310419440   -1.3732645512
F     3.1974682808   -1.5934058428   -2.3048849106
C     4.7881550789   -0.1500307471   -1.2183480263
F     5.7883234024   -0.6381396651   -2.0069880486
C     5.0819187164    0.8248914480   -0.2703037560
F     6.3338174820    1.3108580112   -0.1003489941
C     4.0528864861    1.3143810034    0.5277441144
F     4.2914323807    2.2641484737    1.4643799067
C     2.7498116493    0.8402229548    0.3842323720
F     1.7459195852    1.3092660904    1.1546235085
N    -0.5529826880    1.0339483023   -0.0943128690
C    -0.5626018643    1.9439032078   -1.2160265446
H    -1.3969023228   -0.1860425174    2.5579528809
H    -1.9916224480   -1.9029258490    2.2389466763
H    -3.1864566803   -0.6474137306    2.5601954460
H    -3.6573152542   -1.4206448793   -0.8191698194
H    -4.1439290047   -1.6053657532    0.9194802046
H    -2.8277490139   -2.6391954422    0.1943708062
H    -3.7121083736    0.6352632642   -0.4534045756
H    -3.8918421268    0.6814195514    1.2991787195
H    -2.4911556244    1.5695353746    0.5154163241
H    -0.4505176246   -2.5420165062    0.8259541392
H    -1.1591373682    2.8458433151   -1.0205248594
H     0.4501788616    2.2710478306   -1.4913533926
H    -1.0540903807    1.4577412605   -2.0980899334
34

O    -0.4633575976   -0.2442709953   -1.1159825325
S    -0.8799381256    0.3583005667    0.0472498536
C    -2.4127035141   -0.4631743133    0.3107742071
C    -2.2167730331   -1.7649075985    1.0689193010
C    -3.0870809555   -0.8466848731   -0.9980772138
C    -3.4235315323    0.4374713898    0.9885076284
N    -0.5700763464    0.3303427398    1.6808023453
I     0.5682176948   -0.6010998487    1.0073493719
C     2.5088078976   -0.5107640624    0.2912460268
C     3.1669101715    0.6921695471    0.1395134032
F     2.5136151314    1.8132941723    0.4700914323
C     4.4678168297    0.7145174742   -0.3435185850
F     5.0974931717    1.9052567482   -0.4856128097
C     5.1413736343   -0.4384328723   -0.6841320395
F     6.4108557701   -0.3891343772   -1.1533719301
C     4.4880137444   -1.6313074827   -0.5333858132
F     5.1695394516   -2.7583131790   -0.8749551773
C     3.1972978115   -1.6784189939   -0.0560747609
F     2.5778305531   -2.8873190880    0.0807991177
N    -0.8531274199    1.8732841015   -0.0922720507
C    -0.7555022836    2.8548707962   -1.1075028181
H    -3.0543615818   -2.4443469048    0.9198514819
H    -1.9197659492   -1.5825269222    2.1128461361
H    -1.3307381868   -2.2580659389    0.5921524763
H    -3.0446119308    0.0426756293   -1.6571094990
H    -4.1409640312   -1.0910220146   -0.7447607517
H    -2.5580811501   -1.6682748795   -1.5225400925
H    -4.3504810333   -0.1938283592    1.0509867668
H    -3.1852693558    0.7418236136    1.9979987144
H    -3.5568282604    1.3080630302    0.3214492500
H    -1.1758328676    0.8152958751    2.3408925533
H    -1.1255896091    3.8146185875   -0.6421874762
H     0.2712151110    3.0637166500   -1.4570505619
H    -1.4743725061    2.6861917973   -1.9528957605
34

O    -0.1894368082   -0.8390802741   -1.1244988441
S    -0.8182027340    0.0762812272   -0.2067010701
C    -2.2457542419   -0.7593151331    0.2255748808
C    -2.3737967014   -2.1633605957   -0.3172615469
C    -3.4120202065    0.0224150326   -0.3905208409
C    -2.5567026138   -0.8527820706    1.6965284348
N    -0.6208827496    0.9269903898    1.0858256817
I     0.6225848198   -0.1110314876    1.0027937889
C     2.6200394630   -0.1582870185    0.4555130899
C     3.3256938457    1.0400927067    0.3817921579
F     2.6790547371    2.2074980736    0.6724087596
C     4.6653499603    1.0560482740    0.0194246024
F     5.2969007492    2.2431669235   -0.0352669507
C     5.3225574493   -0.1042832658   -0.2733455598
F     6.6276426315   -0.0304390658   -0.6206287742
C     4.6182761192   -1.2855448723   -0.1983089745
F     5.2533040047   -2.4590139389   -0.4863473773
C     3.2992539406   -1.3441563845    0.1542487144
F     2.6030659676   -2.5055906773    0.2290418446
N    -0.9926241636    1.3484103680   -1.1826864481
C    -1.4801861048    2.6556456089   -1.0590589046
H    -3.2065255642   -2.6585378647    0.2229600847
H    -1.4789695740   -2.7805047035   -0.1025637388
H    -2.6388120651   -2.1959507465   -1.4014338255
H    -4.3731708527   -0.4823193252   -0.1250635087
H    -3.2816772461    0.0686314479   -1.4979647398
H    -3.3901622295    1.0235002041    0.0832879990
H    -3.0297274590    0.1015233696    2.0002112389
H    -3.1188018322   -1.7476315498    1.9690356255
H    -1.5488009453   -0.8312021494    2.2063860893
H    -1.4059282541    1.4923304319    1.4557501078
H    -1.8321521282    2.8490762711   -0.0065731048
H    -0.6061037779    3.3439476490   -1.2428206205
H    -2.3332850933    2.8534729481   -1.7246339321
34

O    -0.3999885321   -0.9821650982   -0.8070224524
S    -0.9536914825   -0.0527093858    0.1730798185
C    -2.3437442780    0.4308217168   -0.7978681922
C    -3.3603088856    1.1725115776    0.0169906300
C    -3.0558533669   -0.7914347649   -1.3754658699
C    -1.8939832449    1.2552645206   -1.9961956739
N    -0.6657034755    1.5630701780    0.4585177898
I     0.6296735406    1.1561572552   -0.4451179802
C     2.5221319199    0.3373535275   -0.0364600345
C     2.8770422935   -0.0210871734    1.2513109446
F     1.9875307083    0.1591827422    2.2688322067
C     4.1225080490   -0.5634320974    1.5406057835
F     4.4413456917   -0.9061260819    2.8198304176
C     5.0387516022   -0.7574373484    0.5416793823
F     6.2576842308   -1.2884678841    0.8261368275
C     4.6959657669   -0.4013325572   -0.7606644630
F     5.6278080940   -0.6064028144   -1.7307779789
C     3.4552175999    0.1383010745   -1.0449733734
F     3.1696517467    0.4674443007   -2.3219630718
N    -0.9811812639   -0.5761120319    1.4777593613
C    -0.9165365100   -1.5034703016    2.5314416885
H    -4.3020153046    1.1670923233   -0.6027503610
H    -3.1221718788    2.2364122868    0.1781623960
H    -3.5806519985    0.6022027731    0.9242455363
H    -3.5839240551   -0.5484751463   -2.3100106716
H    -3.7714433670   -1.1579674482   -0.6074776053
H    -2.3274450302   -1.6068985462   -1.5244702101
H    -1.2290856838    0.5628982782   -2.5762839317
H    -2.7879509926    1.4892328978   -2.5708839893
H    -1.3262903690    2.1391589642   -1.6436842680
H    -1.2969288826    2.0497088432    1.0913282633
H    -0.4713948071   -0.9881973267    3.4150452614
H    -1.9811365604   -1.6967902184    2.8433394432
H    -0.4738814533   -2.4783070087    2.3117609024
34

O    -1.7636061907   -1.4049360752   -2.0872375965
S    -0.9761895537   -0.1704153419   -0.7257085443
C    -2.3889422417    0.3819137514    0.0059355749
C    -2.1180605888    0.4195255935    1.5210121870
C    -3.5277147293   -0.6116063595   -0.1509744823
C    -2.8651463985    1.7650864124   -0.3270950317
N    -0.8796753883    0.7608578205   -1.8631404638
I     0.4783346355    0.3536543250   -1.1025379896
C     2.4576337337    0.4205588102   -0.6349256039
C     3.2983283997    1.3647840023   -1.2390677929
F     2.7402451038    2.2298066616   -2.1456556320
C     4.6440572739    1.4332501888   -0.9413040876
F     5.3683185577    2.3862075806   -1.5840387344
C     5.2252941132    0.5683977008   -0.0286972411
F     6.5391802788    0.6886458993    0.2151968181
C     4.4089007378   -0.3696338832    0.5764857531
F     4.9935607910   -1.2180874348    1.4756231308
C     3.0636196136   -0.4349901080    0.2761124671
F     2.3335714340   -1.3729506731    0.9041765332
N    -0.6944293976   -1.3717825413    0.0487497859
C    -0.5180817842   -2.7664160728    0.1184478253
H    -1.5491036177   -0.4945981801    1.7290927172
H    -3.0486450195    0.5529152155    2.0718355179
H    -1.4083428383    1.2775740623    1.6590778828
H    -4.0452661514   -0.5107072592   -1.1254575253
H    -4.2874431610   -0.4401497245    0.6650944948
H    -3.1439714432   -1.6387572289    0.0268580224
H    -3.7766561508    1.6642163992   -0.9780184031
H    -3.2150039673    2.3504970074    0.5540523529
H    -2.1284060478    2.3885142803   -0.8453992009
H    -1.5651142597    1.2374845743   -2.4373545647
H     0.5017022491   -3.0968093872   -0.0787180737
H    -0.9272878170   -3.0835440159    1.1185699701
H    -1.2256606817   -3.2585060596   -0.6121287346
34

O    -0.1435746104    0.7372072935    1.5489636660
S    -0.8673198223    0.6413349509    0.0229031555
C    -2.0436153412   -0.6585933566    0.0295978785
C    -2.8264551163   -0.5277644992   -1.2308200598
C    -2.9635679722   -0.4861397147    1.2443426847
C    -1.4209561348   -2.0207626820    0.1924721003
N    -0.3182516396    1.2000076771   -1.2271400690
I     0.4578500986   -0.1336573213   -0.6590024233
C     2.4872207642   -0.3646677136   -0.1266128421
C     3.4447324276    0.2452057153   -0.9155598283
F     3.0522797108    0.9636010528   -1.9933940172
C     4.7816324234    0.1327085048   -0.6222439408
F     5.7494401932    0.7184202671   -1.3752254248
C     5.1906929016   -0.5992298126    0.4767579436
F     6.4773054123   -0.7595970631    0.8344355226
C     4.2116289139   -1.1911122799    1.2375545502
F     4.5720062256   -1.9217450619    2.3298509121
C     2.8668065071   -1.0998616219    0.9742130637
F     1.9252460003   -1.7055124044    1.7586624622
N    -1.8402948380    1.7980408669    0.3309710026
C    -2.3953764439    2.9522864819   -0.2594594061
H    -3.1454434395   -1.4997010231   -1.6733721495
H    -2.2820765972    0.0204371698   -2.0423266888
H    -3.7682571411    0.0432196520   -1.0690064430
H    -3.4257705212    0.5025467873    1.1294951439
H    -2.3143754005   -0.4335871339    2.1435248852
H    -3.7165896893   -1.2751673460    1.2627429962
H    -0.9071529508   -2.0874254704    1.1545165777
H    -2.2692391872   -2.7290880680    0.2414997965
H    -0.7956893444   -2.2986490726   -0.6771802902
H    -0.3188913763    2.0332732201   -1.8607337475
H    -2.6993448734    3.6252598763    0.5564726591
H    -1.5598609447    3.4965233803   -0.7805155516
H    -3.1947371960    2.6821887493   -0.9563841820
34

O    -0.9733465314    0.3512713015    2.5765330791
S    -0.8893759847    0.3328281343    0.9318433404
C    -2.4269261360    0.5101527572    0.1650188863
C    -3.3017487526    1.5223841667    0.9068875909
C    -3.2088978291   -0.7737536430    0.0533311479
C    -2.2022180557    1.0806980133   -1.2215642929
N    -0.5483400822    1.8932958841    0.8472895026
I     0.5842460394    1.0601938963    0.0507124290
C     2.4715905190    0.2620383799    0.0528170504
C     2.7874929905   -0.7936770916    0.9068074226
F     1.8411732912   -1.2894157171    1.7352063656
C     4.0477962494   -1.3587266207    0.9379147291
F     4.3258428574   -2.3919544220    1.7858901024
C     5.0146222115   -0.8546515703    0.0938525274
F     6.2650213242   -1.3925650120    0.1037153602
C     4.7423820496    0.1941034794   -0.7707427740
F     5.7269959450    0.6505314708   -1.5776292086
C     3.4574823380    0.7473045588   -0.7812681198
F     3.2360200882    1.7763032913   -1.6473095417
N    -0.5417536497   -0.9778123498    0.6539546847
C    -0.5079880953   -1.9795637131   -0.3509116173
H    -4.3506016731    1.2830799818    0.6840338707
H    -3.1254868507    2.5406246185    0.4972303510
H    -3.1444151402    1.4615195990    1.9998496771
H    -2.9978814125   -1.3253453970   -0.9019855857
H    -4.2846760750   -0.5164383054    0.0037101407
H    -3.0503425598   -1.4207803011    0.9461607337
H    -2.9908115864    1.8131282330   -1.5011833906
H    -1.2263946533    1.6086963415   -1.2744843960
H    -2.1572618484    0.2251123339   -1.9233051538
H    -1.1381081343    2.6347563267    1.2230949402
H    -0.6492413282   -1.6133159399   -1.3725044727
H     0.4773778915   -2.5084857941   -0.3074811995
H    -1.2622272968   -2.7515368462   -0.0400149338
34

O    -0.1978996992   -1.5980969667   -0.1602861434
S    -0.9892811179   -0.0875896215   -0.5013437867
C    -2.3106167316    0.0778154731    0.5642040372
C    -2.5838656425    1.5650585890    0.7450529933
C    -2.0559985638   -0.4638508856    1.9539393187
C    -3.6158761978   -0.5235460997    0.1159079671
N    -0.4760336876    0.9484954476   -1.3690797091
I     0.2794013917    0.7366720438    0.0822187141
C     2.3687274456    0.4382672906    0.3583588302
C     2.8677699566   -0.7436628342    0.8464255333
F     2.0314574242   -1.7442734241    1.1615724564
C     4.2417626381   -0.8789862990    1.0048614740
F     4.7182726860   -2.0664367676    1.4932841063
C     5.1150312424    0.1270411909    0.6905226111
F     6.4633808136   -0.0325310491    0.8561673760
C     4.6248955727    1.3226426840    0.1979544461
F     5.4413657188    2.3619806767   -0.1334566027
C     3.2476015091    1.4700406790    0.0346734673
F     2.7709662914    2.6625289917   -0.4556474686
N    -1.7186205387   -0.8811585903   -1.7687598467
C    -1.0563343763   -1.4056050777   -2.9337182045
H    -1.8149780035    2.0805947781    1.3187474012
H    -3.5459563732    1.6092911959    1.3122454882
H    -2.8174960613    2.0244929790   -0.2507230639
H    -2.9957723618   -0.2278731614    2.5340080261
H    -1.2539663315    0.0444839410    2.4954378605
H    -1.9913527966   -1.5512197018    1.9182796478
H    -3.4170143604   -1.5719741583   -0.2132114172
H    -4.3329315186   -0.4497612417    0.9319909811
H    -3.9085195065    0.0528549999   -0.8069493771
H    -0.3544787765    1.3459757566   -2.3311598301
H    -0.4025476277   -2.2494428158   -2.6292619705
H    -1.8188620806   -1.8112624884   -3.6189563274
H    -0.5122308135   -0.5809656382   -3.4432985783
34

O    -1.4488775730   -0.3545942903   -2.1207497120
S    -0.9403576255    0.1173455268   -0.2877444923
C    -2.4400901794    0.2206176817    0.4554738104
C    -2.7927620411   -0.9371686578    1.3964514732
C    -3.6217973232    0.2879754901   -0.5161075592
C    -2.5095090866    1.4811028242    1.3120511770
N    -0.9004495144    1.5451604128   -0.8697717190
I     0.4424939156    1.0202651024   -0.1577167511
C     2.4298336506    0.6506468654   -0.0223256163
C     2.9320862293   -0.3652010262    0.7860425711
F     2.0935807228   -1.1579732895    1.5251322985
C     4.2819294930   -0.6191273332    0.8804151416
F     4.7890839577   -1.6018238068    1.6605117321
C     5.1696996689    0.1494966149    0.1572583765
F     6.5019917488   -0.1040672213    0.2528695762
C     4.7158112526    1.1636418104   -0.6539283395
F     5.6038708687    1.9273942709   -1.3730217218
C     3.3603434563    1.4102774858   -0.7416843176
F     2.9424042702    2.4301223755   -1.5607964993
N    -0.5055419803   -1.1800308228   -0.0704004541
C    -0.1986289769   -2.4461307526   -0.5933914185
H    -1.9721674919   -1.1762411594    2.0949301720
H    -3.0759627819   -1.7831763029    0.7384512424
H    -3.7208874226   -0.6404647231    1.9327260256
H    -3.8088274002   -0.7654830813   -0.8113399148
H    -3.3910875320    0.8678460717   -1.4194108248
H    -4.4676790237    0.7650817633    0.0150606856
H    -2.7160124779    2.3633036613    0.6597592235
H    -3.3184475899    1.4032872915    2.0706176758
H    -1.5634591579    1.6825749874    1.8505356312
H    -1.6207307577    2.1531829834   -1.2508338690
H    -0.8253091574   -3.2618331909   -0.1304014027
H    -0.2839185297   -2.5538411140   -1.6929962635
H     0.8593739271   -2.6921665668   -0.3334971666
34

O    -2.1099348068   -1.6900229454   -1.6715947390
S    -1.0570877790   -0.9447251558   -0.0431914926
C    -1.9574830532    0.3343095481   -0.3615826368
C    -3.4887537956    0.2301301956   -0.3763628006
C    -1.6346598864    0.9903999567   -1.6977915764
C    -1.7064553499    1.4582015276    0.6615536809
N    -0.3422699273   -2.1099925041   -0.2509175241
I     0.2984676659   -0.6027104259   -0.2536717951
C     2.2050471306    0.0733342990   -0.2607243955
C     3.2878706455   -0.8086193800   -0.1475433260
F     3.0287818909   -2.1492958069   -0.0310080461
C     4.5892763138   -0.3773099482   -0.1495354921
F     5.5842680931   -1.3129411936   -0.0339344889
C     4.8970685005    0.9410880804   -0.2625900507
F     6.2003436089    1.3129386902   -0.2590315640
C     3.8616166115    1.8456852436   -0.3764913678
F     4.1420555115    3.1610264778   -0.4900524020
C     2.5514841080    1.4115855694   -0.3744925857
F     1.5929455757    2.3536775112   -0.4896072447
N    -2.1856131554   -1.6123982668    1.1119041443
C    -1.6268466711   -2.0512955189    2.3284265995
H    -3.8286075592   -0.2554343045   -1.3189275265
H    -3.9682478905    1.2013163567   -0.2168825418
H    -3.7617635727   -0.4729315937    0.4462784529
H    -2.4735927582    1.6218944788   -2.0762636662
H    -1.4120407104    0.1952927411   -2.4355478287
H    -0.7658390999    1.6533331871   -1.6006089449
H    -0.6263294220    1.6054248810    0.8534896374
H    -2.1970586777    2.3568112850    0.2544311881
H    -2.2118861675    1.1828912497    1.6184530258
H    -0.4346841276   -3.1240625381   -0.2046722174
H    -2.1266109943   -2.9782993793    2.7170736790
H    -0.5382886529   -2.2312710285    2.3274707794
H    -1.7851719856   -1.2080311775    3.0639452934
34

O    -0.2671323419   -0.5852563381   -1.1846836805
S    -0.7863866687   -0.4663557708    0.1374707073
C    -2.1088178158    0.6167045236   -0.0912300199
C    -3.1948599815   -0.0671343729   -0.8957031369
C    -1.5795764923    1.7632353306   -0.9644209743
C    -2.6882405281    1.2475825548    1.1161994934
N    -0.6076219678   -0.3885477185    1.6391661167
I     0.7317618132    0.0668883398    0.8776080608
C     2.6834034920    0.0535970293    0.3730233312
C     3.4809935093   -1.0871707201    0.5163016319
F     2.9631609917   -2.2325768471    1.0038417578
C     4.8177433014   -1.0754321814    0.1642803997
F     5.5773992538   -2.1797828674    0.3062940538
C     5.4047632217    0.0657247975   -0.3400022388
F     6.7090644836    0.0457152091   -0.6738313437
C     4.6483469009    1.1889853477   -0.4886228442
F     5.2352600098    2.3176059723   -0.9890064597
C     3.3171894550    1.1922340393   -0.1426699460
F     2.5860574245    2.3360974789   -0.3042150140
N    -1.3724236488   -2.0956251621    0.2664979696
C    -2.4952321053   -2.4805407524    1.0158302784
H    -2.9232459068   -1.0850323439   -1.2171940804
H    -3.4279766083    0.4784158170   -1.8524265289
H    -4.1781759262   -0.0262620971   -0.3437884152
H    -0.5841655731    1.5723001957   -1.3663063049
H    -1.5418970585    2.7223761082   -0.4234454036
H    -2.2452819347    1.9474935532   -1.8434298038
H    -1.8357174397    1.6623761654    1.7236310244
H    -3.2553009987    2.1489694118    0.7821152210
H    -3.2881109715    0.6086113453    1.7750941515
H    -1.3554222584   -0.3642617166    2.3198530674
H    -3.3539230824   -1.8144952059    1.0285617113
H    -2.8499138355   -3.4553587437    0.5867923498
H    -2.2157206535   -2.6310806274    2.0990824699
34

O    -2.2465286255    1.0280188322   -1.8673065901
S    -1.1482050419    0.2683326602   -1.2260459661
C    -2.0398106575   -0.6634061337   -0.0856379345
C    -1.7333313227   -0.1155261025    1.3147588968
C    -1.6898561716   -2.1268780231   -0.0105333747
C    -3.5401499271   -0.6065526605   -0.2316939831
N    -0.5981168747   -0.2982614636   -2.5132412910
I     0.3337782621   -0.6270427108   -1.2269575596
C     2.1609263420   -0.3584359586   -0.3048935235
C     2.6485962868   -1.1111693382    0.7441163063
F     1.8644362688   -2.1113283634    1.2101812363
C     3.8798270226   -0.8905767202    1.3268229961
F     4.2960166931   -1.6831407547    2.3683710098
C     4.6830081940    0.1277676523    0.8552566171
F     5.9008069038    0.3856945634    1.3928265572
C     4.2326698303    0.9049162865   -0.1933437288
F     5.0276722908    1.9182982445   -0.6653465033
C     2.9978559017    0.6673139334   -0.7617904544
F     2.6201910973    1.4738539457   -1.7919479609
N    -0.4470864832    1.6210106611   -0.4209514260
C    -1.0908720493    2.7075355053    0.1642383188
H    -2.3033688068    0.7828644514    1.5598795414
H    -0.6382423043    0.0597672388    1.3781965971
H    -1.9577279091   -0.9184072018    2.0706005096
H    -2.2015054226   -2.5124845505    0.8880687952
H    -0.5949375033   -2.2610290051    0.1130948439
H    -1.9630000591   -2.6300683022   -0.9497023821
H    -4.0481491089   -1.5768923759   -0.0068514324
H    -4.0077791214    0.2077742964    0.3523891568
H    -3.7410411835   -0.3962610662   -1.3090947866
H    -0.7227740884   -0.3089874983   -3.5469338894
H    -0.8210065961    3.6984248161   -0.2461398542
H    -2.1878466606    2.6176729202    0.0175745320
H    -0.9244495034    2.7272021770    1.2702293396
34

O    -0.4169669151   -0.6067879796   -1.1225517988
S    -0.9655895233    0.2224000692   -0.1281660497
C    -2.4507513046   -0.5021256208    0.2697296143
C    -2.7011671066   -1.8364225626   -0.4048193395
C    -3.6179010868    0.3925229609   -0.1690533310
C    -2.6985216141   -0.7759982944    1.7336987257
N    -0.7888749242    1.0519446135    1.1687691212
I     0.4690759778    0.0627285764    0.9795950055
C     2.4349822998   -0.2481616884    0.5265455246
C     2.9522259235   -0.1224823967   -0.7681498528
F     2.1488041878    0.2161948979   -1.7818059921
C     4.2890639305   -0.3419254124   -1.0309345722
F     4.7505707741   -0.2087964565   -2.3050518036
C     5.1691665649   -0.6936540604   -0.0297670569
F     6.4795098305   -0.9080324173   -0.2915966213
C     4.6783075333   -0.8234748244    1.2586829662
F     5.5508956909   -1.1702930927    2.2405252457
C     3.3421874046   -0.6047598124    1.5247843266
F     2.9135951996   -0.7457824945    2.8066465855
N    -1.1945877075    1.6255739927   -1.0946177244
C    -0.3256675899    2.7336521149   -1.1249408722
H    -2.4530181885   -2.6960623264    0.2795984447
H    -1.9147092104   -1.9059890509   -1.2041531801
H    -3.6839861870   -1.9216659069   -0.8747068048
H    -3.7828586102    0.2058009207   -1.2507348061
H    -3.4274613857    1.4550094604    0.0115070716
H    -4.5389318466    0.0469460897    0.3514697254
H    -2.0598483086   -1.6129332781    2.0568876266
H    -2.5359785557    0.0840685442    2.3884177208
H    -3.7491457462   -1.1328883171    1.8143492937
H    -1.4873780012    1.6715316772    1.5638661385
H    -0.8109693527    3.5287101269   -1.6891945601
H    -0.2416459471    3.1065597534   -0.0637022257
H     0.6675741673    2.4545922279   -1.4893538952
34

O    -2.3340597153    1.4405012131    0.8339347839
S    -1.2415717840    0.3583824039    0.5519518256
C    -2.3298172951   -0.8272324204   -0.2390310913
C    -1.7829166651   -2.2057139874   -0.2457862049
C    -2.5941526890   -0.3407916427   -1.6707479954
C    -3.6640434265   -0.8831039071    0.5052561164
N    -0.8933439851    0.1693511903    1.9707869291
I     0.1305208653   -0.5143648982    0.8918992281
C     2.2089085579   -0.2174020112    0.5554142594
C     3.1251742840   -0.3592049479    1.5823737383
F     2.6850960255   -0.6954021454    2.8314588070
C     4.4666090012   -0.1573693901    1.3214910030
F     5.3923702240   -0.2923757434    2.3235132694
C     4.8828444481    0.1774540395    0.0675964281
F     6.1926074028    0.3690982461   -0.1637508273
C     3.9884366989    0.3276555538   -0.9856519699
F     4.3882865906    0.6600254774   -2.2365078926
C     2.6344397068    0.1187118590   -0.6998561621
F     1.7282861471    0.2500044703   -1.6770164967
N    -0.5007646680    1.2704139948   -0.6255878210
C    -0.2190102041    2.6395659447   -0.7021784186
H    -1.1876412630   -2.4112100601    0.6773093343
H    -1.1022921801   -2.3384635448   -1.1357632875
H    -2.6215510368   -2.9157683849   -0.2953353822
H    -2.2941446304    0.7366725206   -1.7298884392
H    -3.6681139469   -0.4752206504   -1.9289854765
H    -1.9382177591   -0.9407852292   -2.3326785564
H    -3.9652616978    0.1933841854    0.6197977066
H    -4.3449096680   -1.4266741276   -0.1557929069
H    -3.5017333031   -1.3175956011    1.4970091581
H    -0.9964313507    0.5436947942    2.9497244358
H    -1.2127008438    3.1765184402   -0.6810533404
H     0.4212074578    3.0534689426    0.0775623843
H     0.1478909850    2.8337752819   -1.7514672279
34

O    -0.5975198746    0.6737936139   -1.3462176323
S    -0.9552193880    0.6704543829    0.0350590236
C    -2.1557059288   -0.6536194682   -0.0285759084
C    -3.0606358051   -0.4083642364   -1.2419999838
C    -3.0624485016   -0.6679663658    1.1572498083
C    -1.4724349976   -1.9535050392   -0.2215566039
N    -0.7064949870    0.6006059647    1.5056644678
I     0.6389905214    0.5035294890    0.6672734022
C     2.4777798653   -0.0646458417    0.0652611330
C     3.0077195168   -1.3282915354    0.3522031605
F     2.2854933739   -2.2394108772    1.0634635687
C     4.2565145493   -1.7105683088   -0.0581385083
F     4.7419886589   -2.9468731880    0.2376661599
C     5.0508761406   -0.8548775315   -0.7791565657
F     6.2873010635   -1.2653924227   -1.1720160246
C     4.5703029633    0.3846482038   -1.0785506964
F     5.3388681412    1.2483839989   -1.7911465168
C     3.3130507469    0.7784981132   -0.6691935658
F     2.8800024986    2.0338892937   -0.9969408512
N    -1.8575645685    2.1153287888    0.0812204778
C    -1.4690026045    3.3285863400    0.6751183271
H    -3.1794843674   -1.3033106327   -1.8521491289
H    -2.6416602135    0.3928339183   -1.8855972290
H    -4.0675654411   -0.0491471142   -0.9552066326
H    -3.3198580742    0.4048172235    1.3948541880
H    -2.5275270939   -1.1445463896    2.0088546276
H    -4.0055232048   -1.1496033669    0.8886041045
H    -1.1206693649   -2.1318380833   -1.2590409517
H    -0.7213580608   -2.1760301590    0.5552734137
H    -2.2683415413   -2.7377507687   -0.0736735165
H    -1.3995229006    0.5957945585    2.2459931374
H    -0.9557490945    3.2366940975    1.6517919302
H    -0.8827306032    3.9270191193   -0.0713251084
H    -2.4218711853    3.8908638954    0.8949344754
34

O    -0.1687538475   -0.4627728760   -1.6517268419
S    -0.8626456857    0.4399295449   -0.7662016153
C    -1.7937344313   -0.6074816585    0.1705616713
C    -1.4525530338   -0.6271407008    1.6658259630
C    -1.7974129915   -2.0664861202   -0.2387796193
C    -3.2582893372   -0.1502501070    0.1273331940
N    -0.7648819685    1.5863234997    0.2453057617
I     0.7145954370    1.1849207878   -0.2106102407
C     2.5349466801    0.3226380944    0.0955251008
C     3.6669456959    1.0896248817    0.3002001047
F     3.5526409149    2.4583423138    0.2957153916
C     4.9059748650    0.5506902337    0.5088467598
F     5.9729361534    1.3690240383    0.7027977109
C     5.0831141472   -0.7968346477    0.5245352387
F     6.2961153984   -1.3321011066    0.7286422849
C     3.9891059399   -1.6090545654    0.3259584308
F     4.1907129288   -2.9402747154    0.3458916247
C     2.7382855415   -1.0613589287    0.1153457090
F     1.7066433430   -1.8903894424   -0.0727262720
N    -1.7633479834    1.2741706371   -1.9378072023
C    -2.6178967953    2.3656282425   -1.8167854548
H    -2.1397454739   -1.3997163773    2.0903930664
H    -1.7295939922    0.3298456967    2.1575503349
H    -0.3985670805   -0.8907963634    1.7630169392
H    -1.8454768658   -2.0792000294   -1.3399904966
H    -2.7288303375   -2.5114445686    0.2078500688
H    -0.9006717205   -2.5363316536    0.1983699799
H    -3.5353255272    0.3031339645   -0.8271208405
H    -3.9379131794   -1.0384582281    0.2402665615
H    -3.4993133545    0.5410221815    0.9331365228
H    -1.5808550119    2.0522630215    0.6284239292
H    -3.5863809586    2.1653633118   -2.3397068977
H    -2.8520936966    2.7323243618   -0.8149547577
H    -2.1377336979    3.2348473072   -2.3550820351
34

O    -0.7324559093    0.3435814977    1.4655777216
S    -1.0517302752    0.2573932409    0.0939287767
C    -2.1280107498   -1.0041288137   -0.0066599152
C    -2.1798241138   -1.7695368528   -1.3338185549
C    -3.5594558716   -0.5221496224    0.2220024914
C    -1.8589358330   -2.0660209656    1.0416866541
N    -0.9566358328    0.6391300559   -1.3631676435
I     0.4472949803    0.6273682117   -0.5858940482
C     2.4180431366    0.3878624737   -0.2273310870
C     3.2885589600    1.4820654392   -0.1531217694
F     2.8045427799    2.7492904663   -0.3259338439
C     4.6377625465    1.3209443092    0.0921492130
F     5.4911623001    2.3829383850    0.1656556726
C     5.1739187241    0.0609858520    0.2734965086
F     6.4923372269   -0.1474867463    0.5167555809
C     4.3366336823   -1.0347491503    0.2051534206
F     4.7867803574   -2.3071150780    0.3724800348
C     2.9838089943   -0.8771939278   -0.0404906832
F     2.1634583473   -1.9354382753   -0.1085184216
N    -2.1930797100    1.8197047710    0.2783866227
C    -1.3884520531    2.9825427532    0.4592208266
H    -1.1867259741   -1.6460133791   -1.7974903584
H    -2.9355514050   -1.3025840521   -2.0151526928
H    -2.4194357395   -2.8424212933   -1.1870343685
H    -4.1620764732   -1.2924846411    0.7121852040
H    -4.0548324585   -0.3214680552   -0.7560301423
H    -3.5586030483    0.4289409518    0.7655562162
H    -0.8172622919   -2.4053692818    1.0173240900
H    -2.1560835838   -1.6996846199    2.0532574654
H    -2.4986824989   -2.9332976341    0.7743519545
H    -1.6699218750    0.6634947062   -2.0822181702
H    -1.7355673313    3.7308092117   -0.3093025088
H    -1.4697890282    3.3926255703    1.4921221733
H    -0.3111903667    2.8374645710    0.2908735573
34

O    -0.1564829797    0.0288577303   -1.5438245535
S    -0.7410622835   -0.1317679137   -0.0450971238
C    -2.2905192375   -0.1265433133   -0.4689663649
C    -2.7770195007   -1.4969699383   -0.9669571519
C    -2.7278103828    0.8359239101   -1.5684484243
C    -3.2401466370    0.1814895272    0.6925389171
N    -0.8159943223   -1.2581467628    0.8807383776
I     0.6318610311   -0.5648846030    0.7408965826
C     2.6068017483   -0.3711310029    0.1878545433
C     2.9988889694    0.7511644363   -0.5499882102
F     2.0526330471    1.6852866411   -0.8801448941
C     4.2991609573    0.9169331789   -0.9361675978
F     4.6439080238    2.0119545460   -1.6476585865
C     5.2378754616   -0.0318443626   -0.5958057046
F     6.5089645386    0.1705334187   -0.9966406822
C     4.8380274773   -1.1250429153    0.1269063503
F     5.7760090828   -2.0430541039    0.4496519566
C     3.5368816853   -1.3112124205    0.5251007676
F     3.2112505436   -2.4207520485    1.2406954765
N    -0.8437485695    1.5335663557    0.6783885956
C    -0.9506980777    1.5699404478    2.1108601093
H    -3.6779828072   -1.3900461197   -1.5885787010
H    -3.0691850185   -2.1392521858   -0.1155798510
H    -1.9743436575   -1.9763319492   -1.5617990494
H    -2.8195884228    0.3207718730   -2.5643243790
H    -1.8986710310    1.5727452040   -1.7384105921
H    -3.6829221249    1.3209117651   -1.3957896233
H    -4.2652592659   -0.1900617927    0.4251961410
H    -2.8920729160   -0.2800893784    1.6144907475
H    -3.3250083923    1.2989377975    0.7301570773
H    -1.4178193808   -2.0702807903    1.1774201393
H    -1.8619991541    2.0695941448    2.4692084789
H    -0.8437450528    0.5416432023    2.5574772358
H    -0.0701829270    2.1171574593    2.5565998554
34

O    -1.7184810638    0.3421109617   -2.4983828068
S    -0.9564239979   -0.0145617928   -0.8119395375
C    -2.4370198250   -0.2285632193    0.1229380667
C    -3.2430949211    1.0278552771    0.2436009645
C    -2.0239207745   -0.8333758712    1.4004567862
C    -3.3635540009   -1.2409427166   -0.5657476783
N    -0.7630169988   -1.3992382288   -1.2716372013
I     0.4951943755   -0.6375407577   -0.6455217600
C     2.4519412518   -0.3915929198   -0.1722661406
C     3.1423063278    0.7862474322   -0.4384920299
F     2.5310871601    1.8350012302   -1.0331906080
C     4.4784088135    0.9184474945   -0.1011838615
F     5.1761732101    2.0719141960   -0.3555600047
C     5.1744494438   -0.0941861048    0.5039258003
F     6.4832978249    0.0249298643    0.8384750485
C     4.5065870285   -1.2730262280    0.7771162391
F     5.1345658302   -2.3250033855    1.3779917955
C     3.1769371033   -1.4175724983    0.4465880096
F     2.5227503777   -2.5798630714    0.7171991467
N    -0.7260940671    1.4009201527   -0.6219962835
C    -0.4261294007    2.1865460873    0.5654733777
H    -4.2431659698    0.9875904918   -0.2363057584
H    -2.7077918053    1.8320057392   -0.3422706723
H    -3.4336504936    1.3579967022    1.2822663784
H    -2.7272922993   -0.4778000414    2.2091178894
H    -0.9767708182   -0.6346930265    1.7014989853
H    -2.1238191128   -1.9408708811    1.3951295614
H    -4.3642349243   -1.0838994980   -0.1308861524
H    -3.4312820435   -1.0786176920   -1.6448585987
H    -3.0520732403   -2.2680866718   -0.2789098620
H    -1.4471495152   -2.1204218864   -1.5304486752
H    -1.0805513859    1.9324034452    1.4189094305
H     0.6310794353    2.1180930138    0.8641430736
H    -0.6592613459    3.2177946568    0.2574439943
34

O    -2.5717000961   -0.3564179540   -1.6498961449
S    -1.3967347145    0.0663659349   -0.9188051224
C    -2.1135613918    0.3157373965    0.6483116150
C    -2.4612333775    1.7921690941    0.7059336901
C    -1.1409635544   -0.0126806647    1.7891138792
C    -3.3337631226   -0.4959350228    0.9219962358
N    -0.9801306725    1.2003445625   -1.8128572702
I     0.0266301949    0.9733318686   -0.5501467586
C     1.9560627937    0.4709543884   -0.0925112963
C     2.9920821190    1.3758831024   -0.3639358878
F     2.6837708950    2.5772984028   -0.9306866527
C     4.2970361710    1.1178873777   -0.0904105231
F     5.2481937408    2.0478577614   -0.3832541704
C     4.6766390800   -0.0739038289    0.4808127582
F     5.9836840630   -0.2752119303    0.7296378613
C     3.6891114712   -0.9953088760    0.7654340863
F     4.0137548447   -2.1657364368    1.3205245733
C     2.3705272675   -0.7244256139    0.4845619798
F     1.4237120152   -1.6309183836    0.7676028609
N    -0.5941643119   -1.4629710913   -0.9185427427
C    -0.4717037082   -2.2663912773   -2.0958046913
H    -1.7654284239    2.3899848461    0.0760549009
H    -2.4313771725    2.2020783424    1.7354369164
H    -3.4643299580    1.8940849304    0.2219218165
H    -1.0121214390   -1.0949376822    1.8503971100
H    -1.6815474033    0.3137261569    2.7098648548
H    -0.2138733119    0.5598447323    1.7248933315
H    -3.4017951488   -1.3331092596    0.1912904382
H    -3.4118070602   -0.8655857444    1.9652206898
H    -4.2373981476    0.1360535622    0.7305993438
H    -1.2385405302    1.6910204887   -2.6971020699
H     0.5697932243   -2.5059478283   -2.3341007233
H    -1.1219705343   -3.1836843491   -2.0337045193
H    -0.8868540525   -1.6814571619   -2.9478502274
34

O    -0.3285546601   -1.0341520309   -0.4482085109
S    -0.8694773912    0.0309141707    0.3118003905
C    -2.3411839008    0.3307029307   -0.4580624700
C    -2.0872409344    1.2183150053   -1.6603443623
C    -3.4351336956    0.9676241279    0.3529735804
C    -2.9663271904   -0.9445909858   -0.9952776432
N    -0.6269686818    1.5396291018    0.7480660677
I     0.6019480228    1.1632856131   -0.2306245118
C     2.5665264130    0.5274532437   -0.1985306889
C     3.2199850082    0.1645985097   -1.3756088018
F     2.5749690533    0.2213551551   -2.5789053440
C     4.5313382149   -0.2632585466   -1.3811135292
F     5.1843361855   -0.6213793755   -2.5221443176
C     5.2228608131   -0.3365478516   -0.1886254251
F     6.5104913712   -0.7550712824   -0.1815181822
C     4.5967235565    0.0176119953    0.9900641441
F     5.2361650467   -0.0385967866    2.1834275723
C     3.2893588543    0.4414323568    0.9741055369
F     2.6623029709    0.7912796140    2.1165361404
N    -0.8932308555   -0.5676585436    1.8148021698
C    -1.1670676470   -1.9221646786    2.1539173126
H    -3.0287840366    1.6429151297   -2.0699794292
H    -1.5131604671    0.7137017846   -2.4646527767
H    -1.4393743277    2.0650074482   -1.2989581823
H    -3.7157781124    0.2558547854    1.1536687613
H    -4.2954344749    1.1051876545   -0.3668996692
H    -3.2363853455    1.9477088451    0.7622931600
H    -2.2283535004   -1.4879839420   -1.6337555647
H    -3.1309478283   -1.6088353395   -0.1195642278
H    -3.9193780422   -0.7769971490   -1.5314512253
H    -1.2827839851    2.0361001492    1.3482772112
H    -1.2259446383   -2.5950937271    1.2959216833
H    -0.3282832503   -2.2793395519    2.8154723644
H    -2.1372127533   -1.9490076303    2.6828982830
34

O    -2.2404947281   -0.3079312742    2.0658521652
S    -1.1771209240   -0.7179671526    0.7657964826
C    -1.3971714973    0.5513234138   -0.0851965845
C    -0.9427503943    0.4024204016   -1.5485316515
C    -0.6885218620    1.8018358946    0.4076974690
C    -2.8614053726    0.9989508390   -0.2504967749
N    -0.6978627443   -1.9417581558    1.2828887701
I     0.3879751265   -0.8937752247    0.7254632711
C     2.2228786945   -0.1998597831    0.2236770540
C     2.9489274025   -0.7686335444   -0.8296676278
F     2.4272918701   -1.8116016388   -1.5441938639
C     4.1890130043   -0.3273320198   -1.1968311071
F     4.8634018898   -0.9016603231   -2.2218556404
C     4.7793164253    0.7169640660   -0.5260493755
F     6.0143074989    1.1427081823   -0.9056139588
C     4.0956935883    1.3144491911    0.5285296440
F     4.7178001404    2.3338053226    1.1531184912
C     2.8438460827    0.8525252938    0.8825127482
F     2.1858892441    1.4530496597    1.9233095646
N    -2.3655741215   -1.6587209702   -0.3619820476
C    -3.3973257542   -2.3280050755    0.3393325806
H     0.0463348441   -0.1140730008   -1.6111570597
H    -0.8672717810    1.4184845686   -2.0277352333
H    -1.7191870213   -0.1744971275   -2.1007056236
H     0.3041865528    1.8681144714   -0.0810148716
H    -0.4809637070    1.6980376244    1.4998884201
H    -1.2348463535    2.7349169254    0.1927461475
H    -3.0189306736    1.5941563845   -1.1528204679
H    -3.5055427551    0.0867530331   -0.3192542195
H    -3.1548264027    1.5054219961    0.6933755875
H    -1.1497929096   -2.7158493996    1.7687879801
H    -3.5091326237   -2.0079236031    1.3832669258
H    -4.3832345009   -2.1677963734   -0.1701636463
H    -3.2349054813   -3.4365324974    0.2558857203
34

O    -2.3415434361   -1.3520282507    1.8360561132
S    -1.1508854628    0.0941939950    1.1416304111
C    -1.7831407785   -0.2551341653   -0.2362478077
C    -1.2734966278    0.6304080486   -1.3874052763
C    -3.3001174927   -0.1674429178   -0.3876948953
C    -1.4763184786   -1.6753876209   -0.7124045491
N    -0.5151447654   -0.0068253730    2.3988926411
I     0.3020057976   -0.1645791382    1.0237625837
C     2.0703899860   -0.3829468787    0.0804183707
C     2.8019368649    0.7156547308   -0.3793880939
F     2.2674252987    1.9584152699   -0.1631353945
C     4.0055947304    0.5849705935   -1.0225131512
F     4.6235280037    1.7362610102   -1.4239795208
C     4.5523300171   -0.6517883539   -1.2457388639
F     5.7433629036   -0.7751366496   -1.8824547529
C     3.8585376740   -1.7667217255   -0.8053899407
F     4.4171090126   -2.9775118828   -1.0365413427
C     2.6312994957   -1.6442930698   -0.1490346342
F     2.0359480381   -2.7814288139    0.2393842489
N    -2.2244555950    1.4126673937    1.5295132399
C    -1.5656708479    2.6231279373    1.8795958757
H    -0.2214749157    0.3107000589   -1.6014713049
H    -1.3387449980    1.6795302629   -1.0779864788
H    -1.8941367865    0.4201448262   -2.2851874828
H    -3.6547305584    0.8725271821   -0.5335885286
H    -3.7578096390   -0.5477450490    0.5546035171
H    -3.6665754318   -0.7594977617   -1.2445040941
H    -1.6586989164   -1.7248526812   -1.7974703312
H    -0.4673921466   -1.9920868874   -0.4026628733
H    -2.2419989109   -2.3579907417   -0.2482937127
H    -0.7904844880    0.1417638958    3.3811874390
H    -0.8617248535    2.9456388950    1.0574150085
H    -2.2483317852    3.4361348152    2.1524050236
H    -0.8765908480    2.4212589264    2.7482285500
34

O    -0.6548082829   -0.5050944090    1.3849538565
S    -1.1216551065   -0.6266255975    0.0607024804
C    -1.9183385372    0.8682221770   -0.1445824802
C    -2.7982151508    1.0041487217   -1.3453933001
C    -0.9210445285    1.9627110958   -0.0692777708
C    -2.8571810722    1.0382009745    1.0598576069
N    -0.8443298340   -0.8610342741   -1.4368659258
I     0.5270981789   -1.0127606392   -0.6159881949
C     2.3505649567   -0.3506664336   -0.0042081485
C     2.9231650829    0.8558469415   -0.4025283158
F     2.2469909191    1.6543970108   -1.2467434406
C     4.1669416428    1.2608697414    0.0423512124
F     4.7249765396    2.4405174255   -0.3480851948
C     4.9004454613    0.4746411741    0.9108207226
F     6.1186399460    0.8192203641    1.3773770332
C     4.3522915840   -0.7224825025    1.3170384169
F     5.0350627899   -1.5381692648    2.1749992371
C     3.1281390190   -1.1132560968    0.8745316267
F     2.6249995232   -2.2966356277    1.2973883152
N    -2.2422697544   -1.9028524160    0.2257833630
C    -1.9426950216   -3.2340874672   -0.2165981233
H    -2.2347233295    1.1326242685   -2.2861144543
H    -3.3622536659    1.9680020809   -1.2060714960
H    -3.5786054134    0.2265501022   -1.3949933052
H    -0.4037072062    2.1215274334   -1.0333744287
H    -0.2475047559    1.8454519510    0.8019582629
H    -1.4801901579    2.9163801670    0.1405037791
H    -3.2116131783    2.0818355083    1.0960911512
H    -3.7509374619    0.3912666440    0.9208196998
H    -2.3494238853    0.7591400743    1.9891295433
H    -1.5507258177   -0.8925902247   -2.1620769501
H    -1.0601218939   -3.2346677780   -0.9114286304
H    -1.7484596968   -3.9042415619    0.6530620456
H    -2.8205122948   -3.6263899803   -0.7606268525
34

O    -2.2605586052    1.4237003326    1.3161936998
S    -1.0683809519    0.9428462982   -0.1228192374
C    -1.5810524225   -0.5167297125    0.0237067472
C    -3.0601432323   -0.8433952332   -0.2598484457
C    -1.3974965811   -1.1332147121    1.4269101620
C    -0.8369696736   -1.5295802355   -0.8553400040
N    -0.4647784233    2.1986713409    0.0269589573
I     0.4201524854    0.8554251790    0.0587550625
C     2.2927875519    0.1372126341    0.2184230238
C     3.0296514034    0.2319782376    1.3976737261
F     2.4576606750    0.8371033072    2.4900367260
C     4.3034296036   -0.2557845712    1.5085998774
F     4.9707784653   -0.1273985058    2.7026107311
C     4.9263920784   -0.8662037849    0.4627127051
F     6.1868910789   -1.3489593267    0.5721188784
C     4.2232499123   -0.9785022140   -0.7272748351
F     4.7918095589   -1.5777847767   -1.8065747023
C     2.9421286583   -0.4904203713   -0.8462076783
F     2.2992706299   -0.6223391294   -2.0205883980
N    -2.1221792698    1.3885278702   -1.4638867378
C    -3.0214648247    2.4981365204   -1.3250763416
H    -3.7045693398    0.0031224277    0.0308081806
H    -3.3583228588   -1.8138911724    0.1824889034
H    -3.1366829872   -0.9184995890   -1.3784631491
H    -1.7108060122   -2.1971602440    1.4163906574
H    -2.1590857506   -0.6070182920    2.0622074604
H    -0.4033552706   -0.9444398880    1.8241623640
H     0.1648372412   -1.6790363789   -0.3842804134
H    -1.3705362082   -2.5165460110   -0.7645196319
H    -0.7731102109   -1.1944190264   -1.8962877989
H    -0.7850048542    3.1759233475   -0.0124495970
H    -4.0736370087    2.1929416656   -1.4956363440
H    -2.9639134407    2.9636237621   -0.3151288331
H    -2.7569913864    3.3121101856   -2.0463757515
34

O    -0.5251345038    0.8367592096   -1.5531604290
S    -1.1486226320    0.8417632580   -0.3141363263
C    -1.6739238501   -0.7422936559   -0.0831116214
C    -1.8689657450   -1.4935096502   -1.3865654469
C    -3.0586793423   -0.7820124626    0.5777267814
C    -0.7504099011   -1.5344086885    0.7790517807
N    -1.0764753819    1.2365533113    1.2197287083
I     0.3907606900    1.4743875265    0.5604122281
C     2.1728501320    0.4390361905    0.3018852174
C     2.6665601730   -0.3841451406    1.3008667231
F     2.0260848999   -0.5545626283    2.4766714573
C     3.8618528843   -1.0863260031    1.1429952383
F     4.3469386101   -1.8894367218    2.1131196022
C     4.5480208397   -0.9387142062   -0.0468684621
F     5.7044911385   -1.6120208502   -0.2117620111
C     4.0876641273   -0.1309465766   -1.0586026907
F     4.8045406342   -0.0355173722   -2.1843090057
C     2.8965756893    0.5585261583   -0.8808501959
F     2.4549498558    1.3485425711   -1.8816219568
N    -2.3799095154    1.9509891272   -0.5998686552
C    -2.0795865059    3.3272547722   -0.4959699214
H    -1.8083254099   -2.5974521637   -1.2273569107
H    -1.1319693327   -1.1205205917   -2.1335999966
H    -2.9068896770   -1.3226308823   -1.7765492201
H    -3.0120055676   -0.5799732804    1.6579315662
H    -3.4175417423   -1.8365058899    0.4621278048
H    -3.6910710335   -0.1242197901   -0.0131152300
H     0.1482021362   -1.7876983881    0.1619525105
H    -0.5201086402   -1.0881042480    1.7488156557
H    -1.2425273657   -2.5369188786    0.9435464740
H    -1.8416131735    1.1042709351    1.8787503242
H    -1.5027008057    3.6192812920   -1.4178129435
H    -3.0326316357    3.8854172230   -0.4524300992
H    -1.4404000044    3.5551362038    0.3921089172
34

O    -0.4278483391    0.9370856881   -0.9501525760
S    -1.0071209669    0.1720634997    0.1529543102
C    -2.4243166447   -0.3732492328   -0.5656613111
C    -2.1304817200   -0.9416049123   -1.9576052427
C    -3.3125443459    0.8533639908   -0.8214890361
C    -3.2652018070   -1.3796273470    0.1183797121
N    -0.9056242704   -0.7628571391    1.2850300074
I     0.4504354000   -0.8020374775    0.4105494618
C     2.4354360104   -0.4100116491    0.0364888273
C     3.4001402855   -0.8607588410    0.9472959042
F     2.9975385666   -1.5497409105    2.0616259575
C     4.7429118156   -0.6343337297    0.7603439689
F     5.6337690353   -1.1050877571    1.6942880154
C     5.1438770294    0.0535764955   -0.3523237407
F     6.4734802246    0.2631695271   -0.5125182271
C     4.2056317329    0.5165176988   -1.2799936533
F     4.6642088890    1.1919310093   -2.3627665043
C     2.8420746326    0.2844829559   -1.0865528584
F     1.9755144119    0.7398301959   -1.9905478954
N    -1.3198741674    1.6025103331    1.1312104464
C    -0.4743597806    1.9373853207    2.2105095387
H    -2.0409247875   -2.0571098328   -1.9284758568
H    -1.1794278622   -0.5573722124   -2.3521788120
H    -2.9215447903   -0.6492309570   -2.6799850464
H    -4.3720002174    0.5640837550   -0.8087997437
H    -2.9710628986    1.3839950562   -1.7174413204
H    -3.1553943157    1.5271401405    0.0644643605
H    -2.9878087044   -2.4312560558   -0.1329952776
H    -3.3549685478   -1.2995921373    1.2095280886
H    -4.3232040405   -1.2776076794   -0.2621712685
H    -1.5354676247   -0.8894286156    2.0746102333
H    -0.5324381590    3.0206263065    2.3964669704
H    -0.8856726289    1.3797022104    3.1039209366
H     0.5622686148    1.5534423590    2.1039917469
34

O    -0.4302264452    0.0006218301    1.2401314974
S    -1.0492439270   -0.3289202452    0.0222627614
C    -2.2317035198    0.8999550343   -0.2446319014
C    -3.5927810669    0.3173933327    0.1148521230
C    -2.2709469795    1.4619047642   -1.6337039471
C    -2.0310490131    2.0865797997    0.6786446571
N    -0.9451823235   -0.8804746270   -1.4147737026
I     0.4750573933   -0.3207790256   -0.9425311089
C     2.4306302071   -0.2133928835   -0.4178850353
C     3.0390436649   -1.0737800598    0.4804480970
F     2.3193798065   -2.0598275661    1.0658317804
C     4.3706674576   -0.9830306768    0.8232091665
F     4.9161157608   -1.8511929512    1.7081979513
C     5.1394567490   -0.0075481916    0.2619045079
F     6.4368109703    0.0673217475    0.6070036292
C     4.5958929062    0.8658864498   -0.6268283129
F     5.3499698639    1.8388321400   -1.1906616688
C     3.2673544884    0.7715681791   -0.9656894207
F     2.7171700001    1.6456369162   -1.8570164442
N    -1.8206229210   -1.7694443464    0.5373303890
C    -1.2596288919   -2.7471604347    1.3794122934
H    -3.8851461411   -0.4757321179   -0.6031749249
H    -4.3254747391    1.1318943501    0.1320725381
H    -3.4993624687   -0.0909351185    1.1469819546
H    -2.7701976299    2.4379239082   -1.5986496210
H    -2.8089952469    0.7756289244   -2.3415045738
H    -1.2282184362    1.6301982403   -1.9828729630
H    -2.5754311085    2.9724164009    0.3612516224
H    -2.3049492836    1.7190715075    1.7067601681
H    -0.9158977866    2.2376077175    0.7410434484
H    -1.6853482723   -1.0949792862   -2.0573625565
H    -1.2309211493   -3.7097666264    0.8325948715
H    -0.2713271976   -2.4536488056    1.7482343912
H    -1.9248940945   -2.7998280525    2.2891185284
34

O    -0.3585650623    0.6366561055    1.5524874926
S    -0.8738120794    0.5484897494   -0.0356716029
C    -2.2595765591   -0.5683327317   -0.1177816689
C    -1.8507732153   -2.0014326572   -0.0757586285
C    -2.9419577122   -0.2075253129   -1.4452844858
C    -3.2645564079   -0.2602292597    0.9693697095
N    -0.2758894563    1.0609458685   -1.2633880377
I     0.3868930936   -0.2693524659   -0.5532775521
C     2.4225542545   -0.5410044789   -0.0414561443
C     2.9693441391    0.0016087203    1.1014730930
F     2.1976757050    0.7364386916    1.9388074875
C     4.2998104095   -0.1962583810    1.4028644562
F     4.8147225380    0.3504738510    2.5375595093
C     5.0540490150   -0.9487736225    0.5278252363
F     6.3687820435   -1.1238763332    0.8590180278
C     4.4996032715   -1.4883784056   -0.6138171554
F     5.2743105888   -2.2216329575   -1.4477797747
C     3.1746706963   -1.3048001528   -0.9359517694
F     2.6139597893   -1.8304923773   -2.0584299564
N    -1.7816362381    1.8853425980    0.1991379261
C    -1.3731615543    3.1960816383    0.5965538025
H    -2.2297785282   -2.5067222118   -0.9933916330
H    -2.3889956474   -2.5076091290    0.7621658444
H    -0.7717758417   -2.1962299347   -0.0062800157
H    -2.1304469109   -0.3221243918   -2.1997396946
H    -3.1389529705    0.8799630404   -1.3804429770
H    -3.8196702003   -0.8305662274   -1.6427904367
H    -2.9513320923    0.5921766162    1.6092573404
H    -4.2734098434    0.0196922682    0.5664358139
H    -3.4550323486   -1.1255905628    1.6295913458
H    -0.0952445939    1.8910911083   -1.8745201826
H    -1.8102780581    3.4333221912    1.5897411108
H    -0.2499177456    3.2991929054    0.6180201173
H    -1.7816129923    3.9194560051   -0.1391330063
34

O    -0.2958282232    0.5142142773    0.9655808210
S    -0.8017831445   -0.1972178668   -0.1230590418
C    -2.2373776436    0.5146592855   -0.4881032407
C    -2.5613312721    0.7993693352   -1.9606676102
C    -2.5075814724    1.8405140638    0.1991466582
C    -3.3844406605   -0.4062695503   -0.0432954952
N    -0.4924995005   -0.8817098737   -1.5198568106
I     0.7339638472    0.1060945168   -1.1415576935
C     2.6693696976    0.0886370614   -0.4053289592
C     3.5942540169   -0.9077384472   -0.7270232439
F     3.2214512825   -1.8962351084   -1.5449408293
C     4.8783779144   -0.8601305485   -0.1981902421
F     5.7872557640   -1.8213901520   -0.5021440983
C     5.2673397064    0.1749174297    0.6577370763
F     6.5340161324    0.2142713964    1.1741968393
C     4.3516435623    1.1567001343    0.9730311036
F     4.7183570862    2.1756401062    1.8093786240
C     3.0738830566    1.1138800383    0.4499178529
F     2.1864664555    2.0967864990    0.7769029140
N    -0.9509498477   -1.7636543512    0.6129322052
C    -1.4409606457   -1.9447247982    1.9218149185
H    -1.6638352871    1.2171297073   -2.4734220505
H    -3.4276812077    1.4804658890   -2.0112025738
H    -2.8692317009   -0.1587998271   -2.4216017723
H    -3.5811467171    2.0199472904    0.3863696754
H    -2.1010913849    2.6840806007   -0.4159049094
H    -1.9394389391    1.7931748629    1.1646313667
H    -3.0155196190   -1.4383990765   -0.2485283315
H    -3.5375542641   -0.2170970440    1.0363277197
H    -4.3030700684   -0.2391437441   -0.6406992078
H    -1.1837029457   -1.4347140789   -2.0305798054
H    -0.6766027212   -2.4108498096    2.5522837639
H    -1.6498525143   -0.9197631478    2.3441030979
H    -2.3948984146   -2.4926452637    1.8717515469
34

O    -0.1836237907   -0.3321346641   -1.5206136703
S    -0.7759134769    0.3179281652   -0.1528493315
C    -2.1902039051   -0.6148771048   -0.2926985621
C    -2.8688604832   -0.5307819247   -1.6487678289
C    -3.2626502514   -0.2483548224    0.7396216989
C    -1.8637282848   -2.0727865696   -0.0385167599
N    -0.6186772585    0.0138855409    1.2426328659
I     0.5700015426    0.8377141953    0.4624715149
C     2.5975921154    0.2695640028    0.1796772480
C     2.9428875446   -1.0641980171    0.1370075047
F     2.0022127628   -2.0288057327    0.2736286521
C     4.2864661217   -1.3620783091   -0.0507026240
F     4.6954989433   -2.6685431004   -0.1024906188
C     5.2290301323   -0.3461620212   -0.1878205687
F     6.5427350998   -0.6031042337   -0.3715175986
C     4.8493614197    0.9968493581   -0.1403560340
F     5.7695288658    1.9619766474   -0.2741206288
C     3.5039751530    1.2968001366    0.0476029254
F     3.1095607281    2.6052110195    0.0973014086
N    -1.6194705963    1.8340129852   -0.5952804685
C    -1.7329628468    2.7472226620    0.4982130527
H    -2.2705955505   -1.1875984669   -2.3262062073
H    -2.7567911148    0.5037909746   -2.0172040462
H    -3.8997025490   -0.8521379232   -1.5152933598
H    -2.9650535583   -0.4874724150    1.7650499344
H    -4.1575846672   -0.8743857741    0.5047370195
H    -3.4963700771    0.8085595965    0.5832610726
H    -1.5677285194   -2.2345106602    1.0375493765
H    -2.7679142952   -2.7151551247   -0.1607252061
H    -1.0155452490   -2.4322102070   -0.6343926191
H    -0.8649812341   -0.5866075754    2.0615661144
H    -1.6096773148    2.2815752029    1.4894348383
H    -0.9099172950    3.4969689846    0.3948346972
H    -2.7008988857    3.2698452473    0.5149664283
34

O    -2.8605418205   -0.7912075520    1.0710256100
S    -1.3329921961   -0.7920201421    0.3343378603
C    -1.4768290520    0.8211018443   -0.0064811590
C    -1.7326024771    1.6454862356    1.2421483994
C    -2.6850450039    1.0421217680   -0.9044809341
C    -0.3450146616    1.5180238485   -0.7169888020
N    -0.8610932231   -1.6313312054    1.3777362108
I     0.0416808575   -1.2657790184    0.0400935374
C     1.9442502260   -0.4328722656    0.0779153705
C     2.6221370697   -0.1437286288    1.2474704981
F     2.0354418755   -0.4084828794    2.4356787205
C     3.8857371807    0.4095580578    1.2565982342
F     4.5105266571    0.6754535437    2.4265100956
C     4.4882526398    0.6815120578    0.0273901876
F     5.7321400642    1.2262970209    0.0178504512
C     3.8552148342    0.4121220708   -1.1594598293
F     4.4219956398    0.6683821082   -2.3790931702
C     2.5840723515   -0.1446928531   -1.1343252659
F     1.9723105431   -0.4047083259   -2.3277080059
N    -2.2166290283   -1.6961333752   -1.0740033388
C    -2.2260107994   -3.0897662640   -0.7044473886
H    -2.7721943855    1.3649445772    1.5776249170
H    -1.7501946688    2.7311458588    0.9545511603
H    -0.9799262285    1.4270011187    2.0008091927
H    -3.1746535301    2.0144138336   -0.7320417762
H    -3.4367227554    0.2207706720   -0.7931017876
H    -2.3858723640    1.0394227505   -1.9844120741
H    -0.7037791014    2.5709111691   -0.9161770940
H     0.5488221049    1.6511900425   -0.1041001230
H    -0.2162549347    1.0496631861   -1.6924632788
H    -0.8888210654   -2.0114474297    2.3503208160
H    -2.8975369930   -3.6380782127   -1.3544911146
H    -1.1863131523   -3.5044426918   -0.8179145455
H    -2.5135543346   -3.2148308754    0.3636282682
34

O    -0.1812917441    0.8493108153    1.0734820366
S    -0.8660675883    0.3965108693   -0.1285723895
C    -2.1759805679   -0.4147789180    0.6236214638
C    -1.5930536985   -1.5092391968    1.4994053841
C    -3.2308578491   -0.9823237062   -0.2425053716
C    -2.8680310249    0.5711693168    1.5745304823
N    -0.8524259329   -0.4168322682   -1.3876017332
I     0.6116185188   -0.4974929392   -0.7232199311
C     2.5801031590   -0.3125968874   -0.3388060331
C     3.1818439960   -0.9459686875    0.7544925213
F     2.3654403687   -1.7021540403    1.5562467575
C     4.5167598724   -0.8323310018    1.0317249298
F     5.0028543472   -1.4973558187    2.1318571568
C     5.3347616196   -0.0706377923    0.2227149755
F     6.6444830894    0.0003410761    0.5520232320
C     4.7820324898    0.5673710704   -0.8610562682
F     5.6164517403    1.3081221581   -1.6349928379
C     3.4378674030    0.4465618134   -1.1311824322
F     2.9704496861    1.1151050329   -2.2301254272
N    -1.2778329849    1.8873915672   -0.7529108524
C    -2.0319969654    2.2046186924   -1.8960067034
H    -2.3545186520   -2.0536954403    2.0727467537
H    -0.7806698084   -1.1023660898    2.1495144367
H    -1.0884900093   -2.2062921524    0.8014261723
H    -3.7944774628   -1.7524658442    0.3482555747
H    -2.7699918747   -1.5600981712   -1.0716760159
H    -3.8830440044   -0.1971048415   -0.6346849203
H    -2.1817355156    0.9525964856    2.3336112499
H    -3.3172743320    1.3960434198    1.0051087141
H    -3.6595897675   -0.0114801647    2.1016423702
H    -1.5135916471   -0.3758684993   -2.1551177502
H    -1.3664320707    2.0604870319   -2.7941837311
H    -2.8317794800    1.4504320621   -2.0277268887
H    -2.4255328178    3.2350208759   -1.8220353127
34

O    -0.6183555126   -0.8396528363   -1.1420964003
S    -0.9974361062   -0.3247945011    0.1187196970
C    -2.4093234539    0.5541577339   -0.2717350721
C    -3.5418138504   -0.4204056263   -0.6019428372
C    -2.1398496628    1.3483494520   -1.5469809771
C    -2.9353997707    1.5090144873    0.7323849201
N    -0.8430859447    0.0178118665    1.5708372593
I     0.4764649570    0.2239448726    0.6835068464
C     2.4477658272    0.3291378915    0.2693822384
C     3.0571262836    1.5345011950   -0.0998013914
F     2.2919220924    2.6564171314   -0.1781230569
C     4.4071154594    1.6074959040   -0.3836128116
F     5.0050420761    2.7799959183   -0.7437592745
C     5.2021446228    0.4820061028   -0.3104898334
F     6.5304727554    0.4974774420   -0.5781701803
C     4.6274862289   -0.7193824053    0.0509679727
F     5.3532156944   -1.8745929003    0.1439928561
C     3.2781255245   -0.7926334739    0.3347091675
F     2.7242081165   -1.9825117588    0.6896589398
N    -1.6451050043   -2.0008292198    0.6837737560
C    -0.6117569804   -2.9770364761    0.7884232998
H    -3.9804410934   -0.7687690258    0.3588716090
H    -3.2106320858   -1.2432528734   -1.2454106808
H    -4.3121457100    0.1469191760   -1.1524267197
H    -1.9886467457    0.6190801859   -2.3861875534
H    -1.2485371828    1.9892582893   -1.4474916458
H    -3.0281281471    1.9407359362   -1.8080730438
H    -3.3680887222    1.0666080713    1.6418062449
H    -2.1302304268    2.2313108444    0.9716348052
H    -3.7319602966    2.0996747017    0.2485450357
H    -1.5663934946    0.1586841345    2.2680854797
H    -1.0595597029   -3.9540646076    0.5037332773
H     0.1918561608   -2.7945501804    0.0268006511
H    -0.2260559350   -3.1001055241    1.8104673624
34

O    -0.2323962599   -0.4127981365    1.2422002554
S    -0.8897503018    0.3417797983   -0.2596597672
C    -2.3627042770    0.4710131586    0.2826878130
C    -2.9588031769   -0.8598224521    0.8074382544
C    -3.5197248459    0.9119961858   -0.6217802167
C    -2.6346688271    1.3882429600    1.5002132654
N    -0.6127020121    1.7699885368   -0.4800885022
I     0.6238807440    0.7935951948   -0.7759028673
C     2.5540201664    0.2899625301   -0.3486409485
C     2.9674448967   -0.9280435443    0.1764875352
F     2.0449373722   -1.8532202244    0.4278852344
C     4.2870359421   -1.2111744881    0.4447335601
F     4.6178364754   -2.4386918545    0.9637056589
C     5.2656440735   -0.2896661758    0.2017211914
F     6.5510725975   -0.6119238734    0.4811953902
C     4.8959379196    0.9258620739   -0.3171977997
F     5.8444023132    1.8566492796   -0.5675605536
C     3.5871160030    1.2063035965   -0.5831105113
F     3.2877027988    2.4364106655   -1.0993258953
N    -1.0347764492   -0.8767774105   -1.3641769886
C    -0.6895596385   -2.2373013496   -1.1854012012
H    -3.9203298092   -0.6453434825    1.2650947571
H    -2.1907300949   -1.2777868509    1.4752210379
H    -3.0153167248   -1.5183684826   -0.0925561413
H    -3.4891803265    0.3700601459   -1.5914388895
H    -3.4113910198    2.0208256245   -0.7506414652
H    -4.5004234314    0.7732421160   -0.1001194045
H    -2.2990875244    2.4117033482    1.3215910196
H    -3.6984782219    1.3813291788    1.7615119219
H    -2.0356380939    0.9389256835    2.3180325031
H    -1.0793106556    2.7054142952   -0.4873105288
H    -0.8437360525   -2.5465016365   -0.1310597807
H    -1.4162513018   -2.8340044022   -1.8035478592
H     0.3079285026   -2.4518799782   -1.5820239782
34

O    -3.0889990330    1.1556140184   -0.0221666750
S    -1.6911509037    0.8425464630   -0.2843533158
C    -1.5967577696   -0.8553858995   -0.0781227276
C    -1.2064393759   -1.5130006075   -1.4099708796
C    -2.9218671322   -1.5045964718    0.2940990925
C    -0.5897279978   -1.2914664745    0.9493700266
N    -1.5456365347    1.5409145355   -1.5846651793
I    -0.1210857108    1.1795029640   -0.9537596703
C     1.6843594313    0.4142565429   -0.4485112429
C     2.3928639889   -0.4328887463   -1.3115324974
F     1.9168680906   -0.7865304947   -2.5218582153
C     3.6292777061   -0.9502462149   -0.9540030956
F     4.3148818016   -1.7786284685   -1.8058432341
C     4.1752772331   -0.6296156645    0.2686609030
F     5.3921413422   -1.1398550272    0.6184819937
C     3.5060822964    0.2016283572    1.1440799236
F     4.0645046234    0.5111523271    2.3588323593
C     2.2760400772    0.7152318358    0.7863001227
F     1.6388596296    1.5304880142    1.6659464836
N    -1.1567883492    1.6154607534    1.2220568657
C    -1.1484194994    3.0290794373    1.1855224371
H    -0.7466307878   -0.7705903649   -2.0906872749
H    -2.1022861004   -1.8869909048   -1.9465017319
H    -0.5937709808   -2.3975055218   -1.2000994682
H    -2.9933876991   -2.5515527725   -0.0125441495
H    -3.7222387791   -0.8672434688   -0.1721046716
H    -3.1338007450   -1.4614681005    1.3762849569
H     0.4106506407   -1.4855006933    0.5231564045
H    -0.5630882978   -0.5111436248    1.7371602058
H    -0.9119176269   -2.2593789101    1.3844140768
H    -2.0851640701    2.0701394081   -2.3149878979
H    -2.1324625015    3.4007544518    0.8628204465
H    -0.9756187201    3.3953700066    2.2175414562
H    -0.3745681942    3.4714496136    0.5169841647
34

O    -0.2055414319    0.2316938341    1.2809435129
S    -0.7451501489   -0.0420242250   -0.0561029948
C    -2.2276024818    0.6643863320    0.0331507884
C    -3.0821378231   -0.1587163359    1.0115964413
C    -3.0707056522    0.8464325070   -1.1848754883
C    -2.1613297462    2.0397779942    0.7077434063
N    -0.5347132087   -0.0652567372   -1.5372854471
I     0.6963865757    0.7427437901   -0.8712618947
C     2.6811451912    0.3726222813   -0.3025388718
C     3.3642485142    1.2891024351    0.4877497554
F     2.7413053513    2.4154288769    0.8845998049
C     4.6631941795    1.0119506121    0.8400738835
F     5.3696222305    1.8813800812    1.6127299070
C     5.3230457306   -0.1394675672    0.4434410036
F     6.5892286301   -0.3710271120    0.8088651299
C     4.6338605881   -1.0564372540   -0.3495140970
F     5.2360005379   -2.2106840611   -0.7704299092
C     3.3274590969   -0.7809144258   -0.7056981921
F     2.6693747044   -1.6846568584   -1.4789025784
N    -0.7496860027   -1.7583558559    0.1597701907
C    -1.6148746014   -2.6354243755   -0.5525677204
H    -3.4691536427   -1.0346969366    0.4427004457
H    -3.8840794563    0.4393197894    1.4611117840
H    -2.4285414219   -0.5681635737    1.8324502707
H    -2.8842678070    1.8249953985   -1.7096172571
H    -4.1715312004    0.9011733532   -0.9364103675
H    -2.9974019527    0.0705110431   -1.9491752386
H    -1.4616830349    2.6602017879    0.0888796970
H    -3.1884768009    2.4794795513    0.6216233373
H    -1.8174508810    1.9272325039    1.7417006493
H    -1.0867362022   -0.5830143690   -2.2247436047
H    -2.2135567665   -2.1358945370   -1.3388285637
H    -0.9505879879   -3.4160377979   -1.0229004622
H    -2.3496634960   -3.1576602459    0.1102247387
34

O    -0.4229106009    0.0951803997   -1.7440414429
S    -1.0838078260    0.6300340891   -0.6470171213
C    -1.5946043730   -0.7805969715    0.2196233422
C    -0.6592952609   -1.1887146235    1.3046475649
C    -1.9205120802   -1.9058024883   -0.7402127981
C    -2.9314620495   -0.4079674184    0.8722826838
N    -1.0245597363    1.5358006954    0.6499624252
I     0.4443420470    1.5433843136   -0.0486481003
C     2.2615551949    0.5232461691    0.1172741055
C     2.7810325623   -0.0587502010   -1.0438445807
F     2.1237041950    0.0395588167   -2.2305395603
C     3.9725952148   -0.7531170845   -1.0410741568
F     4.4565925598   -1.3072507381   -2.1724529266
C     4.6637859344   -0.8675506115    0.1606003046
F     5.8286356926   -1.5496805906    0.1492854208
C     4.1600370407   -0.2920929193    1.3326832056
F     4.8389401436   -0.4105521441    2.4878189564
C     2.9641022682    0.3971393704    1.2979254723
F     2.4261417389    0.9775447249    2.4075276852
N    -2.3068959713    1.4551962614   -1.3411707878
C    -2.5027258396    2.8352005482   -1.4881867170
H     0.3615742624   -0.8658113480    1.0973408222
H    -0.6143897772   -2.3152828217    1.3732721806
H    -1.0383541584   -0.8881546259    2.3231480122
H    -1.3068882227   -2.8037619591   -0.4544351101
H    -1.5508241653   -1.6369417906   -1.7622815371
H    -2.9835021496   -2.1802282333   -0.7760513425
H    -3.5356228352   -1.3330994844    0.9714815021
H    -2.7554483414   -0.0645412952    1.9131515026
H    -3.4901762009    0.3322281837    0.2676084042
H    -1.8158028126    1.6933764219    1.2746467590
H    -3.6145358086    3.0237562656   -1.5263248682
H    -2.0231115818    3.4135243893   -0.6948510408
H    -2.1076087952    3.1147263050   -2.5091481209
34

O    -0.2907373905    0.6357827187   -1.0305812359
S    -0.7907242775    0.1552821547    0.1683372855
C    -2.3047168255   -0.4626621604   -0.1756142974
C    -3.3572621346    0.5783577561    0.2279828191
C    -2.7390766144   -1.7379679680    0.4991247058
C    -2.5420701504   -0.6988098025   -1.6540572643
N    -0.4954472184   -0.6359681487    1.5199928284
I     0.6345177889   -1.0172727108    0.4210253358
C     2.5969381332   -0.6776403785   -0.1084257066
C     3.0131444931    0.5863043666   -0.5145312548
F     2.0886828899    1.5748696327   -0.5482400060
C     4.3203783035    0.8336772323   -0.8724508286
F     4.7083673477    2.0678498745   -1.2647825480
C     5.2450551987   -0.1928045154   -0.8294628263
F     6.5495991707    0.0491524115   -1.1854364872
C     4.8119883537   -1.4278048277   -0.4266582429
F     5.7253937721   -2.4278819561   -0.3876331449
C     3.5114402771   -1.7095108032   -0.0617961362
F     3.1909055710   -2.9693117142    0.3215692341
N    -0.8238787055    1.6194443703    1.0597870350
C    -1.1035892963    2.8972003460    0.5421547890
H    -3.0293002129    1.0425460339    1.1688926220
H    -4.3335294724    0.0791708604    0.3794477284
H    -3.4633457661    1.2838090658   -0.6162875295
H    -2.9931542873   -1.5989047289    1.5686049461
H    -1.9637768269   -2.5238528252    0.3586226404
H    -3.6647744179   -2.0953347683   -0.0015753859
H    -3.6522254944   -0.7431049943   -1.8183908463
H    -2.0740137100    0.0673355311   -2.2955663204
H    -2.1851937771   -1.7400337458   -1.9006096125
H    -1.1860822439   -0.7383183241    2.2667722702
H    -0.7277635932    3.6312477589    1.3117920160
H    -0.5249099731    3.1515598297   -0.3748371303
H    -2.1508395672    3.1435942650    0.3661448658
34

O    -0.2810012996   -0.1319057792    1.2187609673
S    -0.7757154703   -0.2254333943   -0.0084173465
C    -2.0967450142    0.8704286814   -0.0983727351
C    -2.3700866699    1.5869290829    1.2166147232
C    -3.3945817947    0.2241973877   -0.5128379464
C    -1.7924220562    1.9902727604   -1.0914428234
N    -0.6668084860   -0.4584637880   -1.5895640850
I     0.7192842364    0.0330305919   -0.9384991527
C     2.6706817150   -0.2160302103   -0.4273393154
C     3.6060409546   -0.6654077768   -1.3504383564
F     3.1866500378   -0.9375470281   -2.6129250526
C     4.9341783524   -0.8457934856   -1.0411611795
F     5.8174009323   -1.2882829905   -1.9769825935
C     5.3700566292   -0.5705127716    0.2442274839
F     6.6845560074   -0.7507557869    0.5442651510
C     4.4689183235   -0.1192559078    1.1984082460
F     4.9009561539    0.1524765939    2.4685180187
C     3.1399836540    0.0512915254    0.8537411690
F     2.2519800663    0.4976665378    1.7999402285
N    -1.4331699610   -1.8868561983    0.1058008969
C    -2.2855026722   -2.1840507984    1.1908303499
H    -3.4435429573    1.8411051035    1.3105368614
H    -1.8292701244    2.5715537071    1.2579373121
H    -1.9893021584    1.0117964745    2.0791282654
H    -4.0466809273    1.0475898981   -0.9128749371
H    -3.9647550583   -0.2226425111    0.3242981434
H    -3.2780060768   -0.4995025098   -1.3485971689
H    -1.1691819429    2.7522120476   -0.5955607295
H    -1.1505712271    1.5287842751   -1.8939423561
H    -2.6901302338    2.3784101009   -1.5913814306
H    -1.4157623053   -0.6216316819   -2.2513473034
H    -3.2637190819   -2.5060749054    0.7380675673
H    -1.9745030403   -3.0686101913    1.7983405590
H    -2.4392280579   -1.3389871120    1.8922684193
34

O    -0.2076235414   -0.7263482809    1.5726746321
S    -0.9936271310   -0.6641942859   -0.0106433136
C    -2.0217576027    0.6972744465   -0.0310218930
C    -3.5064885616    0.3682655990   -0.2140861899
C    -1.7244803905    1.7066922188   -1.1325831413
C    -1.9649521112    1.5319832563    1.2557487488
N    -0.5098167658   -1.4219638109   -1.1542195082
I     0.3688567877   -0.1019075289   -0.7411668301
C     2.3843896389    0.2166459858   -0.2426101267
C     2.8694345951    1.4851974249    0.0023713857
F     2.0305173397    2.5548503399   -0.0790550560
C     4.2134637833    1.6286798716    0.3275878131
F     4.7298588753    2.8549284935    0.5753477812
C     5.0698318481    0.5513374805    0.4122204483
F     6.3797249794    0.7129990458    0.7314155102
C     4.5859184265   -0.7235653400    0.1668341160
F     5.4003624916   -1.7968090773    0.2423092872
C     3.2426445484   -0.8724280000   -0.1587703973
F     2.7443675995   -2.1176712513   -0.4043618441
N    -2.0052976608   -1.7598627806    0.4989861548
C    -2.0436842442   -3.1723589897    0.5529893041
H    -3.5161828995   -0.2649449408   -1.1496479511
H    -4.0180945396    1.3288283348   -0.4237555563
H    -3.9176371098   -0.2046184540    0.6247103810
H    -1.0864878893    2.5401430130   -0.7621622086
H    -2.6081445217    2.1518177986   -1.5850938559
H    -1.1741703749    1.1701903343   -1.9481682777
H    -1.2472920418    2.3759524822    1.1435785294
H    -2.9557454586    2.0292921066    1.4573757648
H    -1.7316094637    0.9087758064    2.1344342232
H    -0.5978903174   -2.3056223392   -1.7054655552
H    -1.9221818447   -3.5506033897   -0.5000573397
H    -1.2272310257   -3.6487076283    1.1223100424
H    -3.0389757156   -3.4822475910    0.8809574842
34

O    -2.0450897217   -1.7521679401    1.0847338438
S    -0.9992026091   -1.0257623196    0.3047147095
C    -2.1704828739   -0.1779017597   -0.8103498816
C    -2.6989929676   -1.1631729603   -1.7891819477
C    -1.5205079317    1.0391759872   -1.4042185545
C    -3.3271915913    0.3669137359    0.0373887680
N    -0.3273308873   -2.2498264313   -0.2391401082
I     0.3995891511   -0.8436137438   -0.6594460011
C     2.3296356201   -0.1014415398   -0.2031855285
C     2.9825799465   -0.4327749312    0.9586788416
F     2.3915851116   -1.2594079971    1.8557608128
C     4.2550463676    0.0950561762    1.1929426193
F     4.9327268600   -0.2127841562    2.3365046978
C     4.8264446259    0.9392682314    0.2478263080
F     6.0599107742    1.4783253670    0.4275381863
C     4.1672477722    1.2747552395   -0.9268546104
F     4.7209305763    2.1006736755   -1.8562804461
C     2.9072046280    0.7431644797   -1.1434197426
F     2.2547502518    1.0661611557   -2.2903609276
N    -0.5230431557    0.0173461568    1.4621796608
C    -1.1343683004    0.4811155200    2.6441950798
H    -2.0613315105   -2.0846469402   -1.7843086720
H    -2.7557551861   -0.7993991375   -2.8285310268
H    -3.7368545532   -1.4978575706   -1.5417256355
H    -2.2857697010    1.8175628185   -1.5971747637
H    -0.9656554461    0.7377078533   -2.3050899506
H    -0.8020395637    1.4811105728   -0.6907346249
H    -3.6036982536   -0.3436937630    0.8278108239
H    -3.0880515575    1.3775831461    0.4275498092
H    -4.1585326195    0.5217216611   -0.6834934950
H    -0.2535286248   -3.2878448963   -0.1262186170
H    -0.4946117699    1.2884043455    3.0983552933
H    -2.1863548756    0.7526115179    2.5618503094
H    -1.0892589092   -0.3463616967    3.4116847515
34

O    -0.3947581053    0.4764626622   -2.4917786121
S    -0.6357145905    0.4995348752   -0.9406328797
C    -2.2530014515    0.9073535204   -0.4157260358
C    -2.2534842491    1.0957486629    1.0663731098
C    -3.1768689156   -0.2017607391   -0.8892914057
C    -2.7710473537    2.1786963940   -1.0574330091
N    -0.0997974649    1.9720734358   -0.6861383319
I     0.7316306829    0.9867414236    0.2915194631
C     2.4528677464   -0.1181080714    0.5556700826
C     3.2917010784    0.1558092982    1.6119624376
F     3.0456645489    1.1404795647    2.5179963112
C     4.4610133171   -0.5877942443    1.7995152473
F     5.2850837708   -0.3099935651    2.8470788002
C     4.7860059738   -1.6092945337    0.9213789701
F     5.9274687767   -2.3488888741    1.0888186693
C     3.9418385029   -1.8780581951   -0.1337538064
F     4.3047986031   -2.8935463428   -0.9713409543
C     2.8010940552   -1.1419587135   -0.3045589328
F     1.9864434004   -1.4300811291   -1.3556307554
N    -0.5804013610   -0.8620914221   -0.5264316201
C    -1.0526624918   -1.8195677996    0.4180944264
H    -1.2525261641    0.9695480466    1.5253645182
H    -3.0370743275    0.4575851262    1.5672624111
H    -2.5670335293    2.1411125660    1.3566037416
H    -2.6497623920   -0.9071216583   -1.5932044983
H    -4.0595221519    0.1476479769   -1.4283139706
H    -3.5036613941   -0.8459507823   -0.0280671604
H    -2.4688475132    3.0328109264   -0.4154059589
H    -2.4358675480    2.2815146446   -2.1108181477
H    -3.8902680874    2.1290695667   -0.9813077450
H    -0.4721480012    2.7864735126   -1.1764215231
H    -0.1961017847   -2.4322378635    0.8112720251
H    -1.5508260727   -1.4069802761    1.2946056128
H    -1.7142349482   -2.5652282238   -0.0995691940
34

O    -0.5508726835   -1.3719531298    0.5893992782
S    -1.1778421402   -0.4968685806   -0.3392293155
C    -1.7657189369    0.7628399134    0.5821803808
C    -3.2931728363    0.5846689939    0.6414980888
C    -1.5500932932    2.1790125370    0.1396997869
C    -1.3288685083    0.7592072487    2.0359661579
N    -1.0636117458    0.2337252796   -1.7106010914
I     0.3791130185   -0.3750615120   -1.3478271961
C     2.2803077698   -0.1838549674   -0.6345660090
C     3.3301737309    0.1261439323   -1.5090345144
F     3.0645542145    0.2974403799   -2.8372819424
C     4.6224980354    0.2667759061   -1.0902636051
F     5.6078281403    0.5697979927   -1.9859180450
C     4.9546623230    0.1095414981    0.2173427045
F     6.2132868767    0.2337015420    0.7047606707
C     3.9619393349   -0.1954187006    1.1176917553
F     4.2523088455   -0.3625802994    2.4451241493
C     2.6739988327   -0.3352760673    0.6985131502
F     1.7230364084   -0.6313261986    1.5860627890
N    -2.3787539005   -1.5656089783   -0.9048782587
C    -2.2600743771   -2.9516818523   -1.0973694324
H    -3.5460336208   -0.0910571218    1.5027098656
H    -3.6506433487    0.0920856372   -0.2723737955
H    -3.8034636974    1.5437630415    0.7950595021
H    -1.4434018135    2.3576745987   -0.9210473895
H    -0.6195311546    2.5853338242    0.6157687306
H    -2.3917851448    2.8254113197    0.4904565215
H    -2.1504595280    1.0262289047    2.7284371853
H    -0.9470068216   -0.2380404621    2.3242418766
H    -0.5045551658    1.4659355879    2.2269499302
H    -1.8291639090    0.7596423030   -2.1285822392
H    -3.1344547272   -3.2778427601   -1.6970907450
H    -1.3701951504   -3.2249526978   -1.6943728924
H    -2.3040053844   -3.4774072170   -0.1199042648
34

O    -0.2833879888    1.2689143419   -1.0229612589
S    -0.9244784117   -0.3054364920   -0.0159890894
C    -2.4227497578    0.2808060944   -0.3363181651
C    -3.4927394390   -0.5636473894    0.3728182614
C    -2.8804953098    0.3861346245   -1.7775638103
C    -2.6207904816    1.6838749647    0.2561473548
N    -1.0319972038   -1.4196139574   -0.9823202491
I     0.4546003640   -1.1230326891   -0.4295225441
C     2.4186961651   -0.5545054078   -0.4970078766
C     3.3128168583   -1.1794126034   -1.3714133501
F     2.9225533009   -2.1762480736   -2.2018125057
C     4.6439538002   -0.8093816638   -1.4317506552
F     5.4945611954   -1.4266803265   -2.2853949070
C     5.1457958221    0.1965267807   -0.6273520589
F     6.4540991783    0.5246865153   -0.7205551863
C     4.2752623558    0.8213689327    0.2396647036
F     4.7834372520    1.8161089420    1.0314460993
C     2.9509763718    0.4511443377    0.2976870537
F     2.1501688957    1.1103717089    1.1758419275
N    -0.7600510120    0.0389395803    1.4105864763
C    -0.2666708529   -0.3544543386    2.6768045425
H    -3.0064928532   -0.9595419168    1.3076711893
H    -3.7862808704   -1.4005281925   -0.2615821362
H    -4.3417406082    0.0474241339    0.7238903046
H    -2.0013926029    0.6161136031   -2.4217050076
H    -3.7243838310    1.0844442844   -1.9085178375
H    -3.1889104843   -0.6573435664   -2.0639617443
H    -1.9107354879    2.3682484627   -0.2573943734
H    -3.6445865631    2.0045149326   -0.0349892154
H    -2.4504685402    1.6946237087    1.3404335976
H    -1.6901118755   -2.0700602531   -1.4542980194
H     0.1879546642   -1.3519248962    2.7081055641
H     0.4071495831    0.3806090653    3.1704015732
H    -1.1735619307   -0.4230431020    3.3480174541
34

O    -0.3241600692    1.6448366642    1.7939587831
S    -0.7585027218    0.6453803182    0.5873972774
C    -2.4241297245    0.4979108870    0.2993563712
C    -3.1382150650    1.7131611109    0.8809604645
C    -3.0706400871   -0.6962861419    0.9999141693
C    -2.8075051308    0.3837061822   -1.1621444225
N    -0.5695739985    1.7835303545   -0.5531384945
I     0.3803053200    0.5322498679   -0.9526994228
C     2.3716940880   -0.0102530923   -0.7096605301
C     2.9332814217   -1.1754548550   -1.1593888998
F     2.1302614212   -2.0460965633   -1.8152071238
C     4.2845702171   -1.4770056009   -0.9603715539
F     4.8119592667   -2.6423246861   -1.4190849066
C     5.1089062691   -0.5890234113   -0.2901149094
F     6.4205017090   -0.8204782605   -0.0655869171
C     4.5533785820    0.5937440991    0.1701946557
F     5.2961583138    1.5249155760    0.8412238955
C     3.2136368752    0.8783004880   -0.0345003232
F     2.7081146240    2.0643379688    0.4405443966
N    -0.3686489165   -0.6102120876    1.0328412056
C    -0.3488550186   -2.0043096542    0.6983432770
H    -2.7796285152    1.8656116724    1.9050341845
H    -4.2193913460    1.5006276369    0.8418858647
H    -2.9678573608    2.6339902878    0.3018681109
H    -4.0869755745   -0.4628193080    1.3707493544
H    -2.4820263386   -0.9480820894    1.9090338945
H    -3.1773698330   -1.5654004812    0.3263406157
H    -1.8677699566    0.2176104188   -1.7611083984
H    -3.5669546127   -0.3800556362   -1.3495646715
H    -3.2480938435    1.3548867702   -1.5263689756
H    -1.0637084246    2.6708290577   -0.5466976166
H    -0.9285328388   -2.2183043957   -0.2137231380
H     0.7131834030   -2.2908062935    0.4743985236
H    -0.7274119854   -2.5687162876    1.5727753639
34

O    -0.2203523964   -1.0502749681    0.7511312366
S    -0.7047593594    0.2393388301    0.2895739675
C    -2.2482910156   -0.2046436667   -0.2445423305
C    -3.1304440498    0.8384429812   -0.8197453618
C    -3.0121083260   -0.8853562474    0.8968297839
C    -2.0604460239   -1.2807462215   -1.3029767275
N    -0.5156247616    1.4658559561   -0.5555109382
I     0.6681591868    0.4291803241   -0.9214321375
C     2.6329765320   -0.1895955503   -0.6847366095
C     3.4508635998   -0.4955482483   -1.7533593178
F     2.9591312408   -0.3902744949   -3.0087654591
C     4.7512087822   -0.9006747007   -1.4911453724
F     5.5821704865   -1.2088443041   -2.5129113197
C     5.2553081512   -1.0090396404   -0.2150170207
F     6.5107846260   -1.3996738195    0.0509236082
C     4.4397997856   -0.7038031816    0.8546579480
F     4.9100484848   -0.8019676208    2.1152579784
C     3.1400094032   -0.2980106175    0.6128261685
F     2.3593537807   -0.0040191207    1.6804211140
N    -0.6760091782    1.0182982683    1.7802851200
C    -1.5732046366    2.0632674694    2.1239826679
H    -3.9508721828    0.3225917816   -1.3868004084
H    -2.6741802692    1.5229890347   -1.5347050428
H    -3.6825854778    1.4163681269   -0.0225442946
H    -2.4927680492   -0.6849312186    1.8620828390
H    -3.0657174587   -1.9822866917    0.7825989127
H    -4.0344562531   -0.5083524585    0.9746832848
H    -1.7425976992   -2.2179372311   -0.7673258781
H    -3.0373890400   -1.5086977482   -1.7736506462
H    -1.2680631876   -1.0424970388   -2.0136451721
H    -1.0731476545    2.3186814785   -0.5337527990
H    -1.0689201355    2.8597846031    2.7271187305
H    -2.0234148502    2.5816102028    1.2652182579
H    -2.4044618607    1.6907657385    2.7749750614
34

O    -0.7119521499    0.0921893567    1.2948187590
S    -0.9378927946    0.5646023154    0.0004790652
C    -2.2315003872   -0.6052356362   -0.4618005753
C    -3.1975402832   -0.7623041272    0.7212134004
C    -1.5837069750   -1.9142044783   -0.6784279943
C    -3.0650925636   -0.1070248857   -1.5925186872
N    -0.6303402781    1.0373618603   -1.3980864286
I     0.6457285881    0.5247868299   -0.5880329609
C     2.5405151844    0.0121927708   -0.1603063643
C     3.4708404541    0.9114460349    0.3418020010
F     3.1050760746    2.1977586746    0.5605871081
C     4.7654900551    0.5522798896    0.6317991614
F     5.6573228836    1.4528455734    1.1229110956
C     5.2024517059   -0.7462543845    0.4308924675
F     6.4704046249   -1.1192638874    0.7095183134
C     4.3084816933   -1.6503199339   -0.0617326014
F     4.7234525681   -2.9386239052   -0.2665147483
C     3.0209672451   -1.2895414829   -0.3492207825
F     2.1526558399   -2.2215912342   -0.8414018750
N    -1.8298782110    2.0331854820    0.3767568767
C    -1.5494769812    2.8381407261    1.4981775284
H    -4.2483606339   -0.8352473378    0.3906778097
H    -3.1216843128    0.1492110342    1.3605338335
H    -2.9429314137   -1.6232863665    1.3521771431
H    -0.6712096334   -1.9076136351   -1.3096963167
H    -2.3012847900   -2.6163899899   -1.1514074802
H    -1.3506423235   -2.3790988922    0.3182347715
H    -4.0500349998   -0.5797639489   -1.5374387503
H    -3.2125108242    0.9707413912   -1.5353709459
H    -2.5574171543   -0.4069362283   -2.5408337116
H    -1.2764362097    1.2878291607   -2.1394364834
H    -0.8673109412    2.3100271225    2.2050268650
H    -1.2102479935    3.8519577980    1.2247308493
H    -2.5159358978    2.9161443710    2.0718896389
34

O    -0.6851978302   -0.0485129692    1.5917698145
S    -0.9432717562   -0.2387517542    0.3013070524
C    -2.3589849472    0.7133283019   -0.0158207193
C    -3.5873184204   -0.1742296070   -0.2567938864
C    -2.1951119900    1.5636178255   -1.2658064365
C    -2.7491981983    1.6207336187    1.1233879328
N    -0.8764510751   -0.8328691125   -1.1414519548
I     0.4990963042   -0.3706434965   -0.4485948980
C     2.4799737930    0.0269149356   -0.2801984847
C     3.0131554604    0.6368623376    0.8450125456
F     2.2033998966    0.9930151701    1.8897805214
C     4.3655352592    0.8910300732    0.9229568839
F     4.8738527298    1.4918503761    2.0371611118
C     5.2332830429    0.5539780259   -0.1008894295
F     6.5741181374    0.8045347333   -0.0266806670
C     4.7207908630   -0.0466675386   -1.2132837772
F     5.5216302872   -0.3932920694   -2.2346024513
C     3.3826057911   -0.2980884314   -1.2902389765
F     2.8838365078   -0.9001932740   -2.4104621410
N    -1.8226876259   -1.9707764387    0.7275956273
C    -0.7437706590   -2.8757026196    1.0649770498
H    -3.5687723160   -0.9384395480    0.5615026355
H    -3.5310630798   -0.7152018547   -1.2036250830
H    -4.4811954498    0.4711802900   -0.1891864389
H    -1.7757306099    0.9567909241   -2.0949027538
H    -1.5673547983    2.4437716007   -1.0990658998
H    -3.2128574848    1.8592303991   -1.6104675531
H    -2.7722945213    0.9973447323    2.0541965961
H    -1.9998420477    2.4045994282    1.2170144320
H    -3.7835087776    1.9741928577    0.9293155670
H    -1.5697032213   -1.1502858400   -1.8086352348
H    -0.6314263940   -2.9137961864    2.1652314663
H    -1.0853605270   -3.8673400879    0.7260090709
H     0.1898236126   -2.6681849957    0.5334888101
34

O    -0.4957830906   -1.4512023926   -0.2634649277
S    -1.0098835230   -0.1676489860    0.2097570449
C    -2.3267257214    0.0319372788   -0.8691287041
C    -3.2339844704   -1.1937069893   -0.6854947805
C    -1.7991336584   -0.0281433128   -2.2717123032
C    -3.1980764866    1.2197376490   -0.7003509998
N    -1.0057653189    1.1061104536    0.8763479590
I     0.4291272461    0.6364369392    0.3389718235
C     2.4423294067    0.4648909569    0.1197597459
C     3.1407368183   -0.5827688575    0.7296116948
F     2.4419009686   -1.4876354933    1.4751422405
C     4.5059022903   -0.7235359550    0.5979257226
F     5.1334476471   -1.7693691254    1.2184314728
C     5.2072830200    0.1933070868   -0.1563319117
F     6.5472764969    0.0101653337   -0.2543661892
C     4.5586867332    1.2359145880   -0.7710475922
F     5.2545461655    2.1404087543   -1.5158107281
C     3.1847362518    1.3649854660   -0.6297705173
F     2.4912946224    2.3782117367   -1.2165737152
N    -1.7599123716   -1.0311197042    1.6886206865
C    -0.9202094078   -1.0450432301    2.8295650482
H    -2.6237363815   -2.1176536083   -0.7248548269
H    -4.0889244080   -1.1756670475   -1.3740665913
H    -3.6078727245   -1.1086809635    0.3648427725
H    -0.9582573175   -0.7442765236   -2.3052239418
H    -1.3674131632    0.9668897986   -2.5683627129
H    -2.5782992840   -0.3445069492   -2.9943544865
H    -3.4604489803    1.4390014410    0.3581856489
H    -2.8484799862    2.1333093643   -1.2280684710
H    -4.1886415482    0.9768769741   -1.1743762493
H    -1.7001937628    1.6284366846    1.4011911154
H    -1.5813944340   -0.8640927672    3.7248499393
H    -0.3158811927   -1.9483430386    2.9725604057
H    -0.2682515383   -0.1432257891    2.7975964546
34

O    -0.4678356647    0.8462282419    1.0566676855
S    -0.8683474064   -0.2739969492   -0.1136601940
C    -2.3121120930    0.5170622468   -0.4226602912
C    -2.1557757854    1.8381810188   -1.1871001720
C    -3.1586022377    0.8674780726    0.8074216843
C    -3.2202448845   -0.3563975692   -1.2739282846
N    -0.5095926523   -0.3330405354   -1.5159732103
I     0.5566344857   -0.8558142185   -0.3777245581
C     2.5365555286   -0.2987170219   -0.0378208533
C     3.5359542370   -1.0060743093   -0.7039188743
F     3.2133820057   -2.0083436966   -1.5316399336
C     4.8791875839   -0.6998938918   -0.5341092348
F     5.8259224892   -1.4105272293   -1.1994780302
C     5.2635321617    0.3342014849    0.3165151179
F     6.5410451889    0.6730999351    0.5184296966
C     4.2735357285    1.0502697229    0.9893708229
F     4.5864162445    2.0598578453    1.8240188360
C     2.9353961945    0.7088986635    0.7894042730
F     2.0165920258    1.4135675430    1.4479730129
N    -1.6681314707   -1.6152452230    0.6701042056
C    -1.1463280916   -2.1593089104    1.8760777712
H    -1.3089292049    2.4174230099   -0.7657750249
H    -3.0673799515    2.4550516605   -1.0430523157
H    -2.0183227062    1.6254504919   -2.2590169907
H    -3.5465261936   -0.0345725864    1.2979458570
H    -4.0349068642    1.4049229622    0.3711177409
H    -2.6291320324    1.5739558935    1.4745473862
H    -4.1340608597    0.2273842394   -1.5578683615
H    -2.6945679188   -0.6825363040   -2.1937212944
H    -3.5624120235   -1.2358747721   -0.6880947948
H    -0.6805897951   -0.0180149022   -2.4967708588
H    -0.1292701364   -2.5771591663    1.6298575401
H    -1.0759553909   -1.4204925299    2.7111914158
H    -1.7751308680   -3.0270233154    2.1216697693
34

O    -0.6863071322    0.4653076530   -1.4980667830
S    -0.9659600854    0.3153008223   -0.2182653695
C    -2.3257076740   -0.7746492028   -0.1810175776
C    -3.6136176586   -0.1215252057    0.2454591990
C    -1.9845820665   -1.9423295259    0.7539169788
C    -2.6011052132   -1.4320209026   -1.5251678228
N    -0.9319500923    0.4778008759    1.3431257010
I     0.4682503343    0.3026957512    0.5744671226
C     2.4674232006    0.0477341302    0.3562850356
C     3.3779921532    0.9288395047    0.9373260140
F     2.9075076580    1.9745638371    1.6612282991
C     4.7442483902    0.7491577864    0.7845165133
F     5.6341390610    1.6122823954    1.3537596464
C     5.2134327888   -0.3179618120    0.0460534468
F     6.5470452309   -0.5400922298   -0.1349517703
C     4.3397402763   -1.2102757692   -0.5434448719
F     4.7490115166   -2.2709231377   -1.2761498690
C     2.9816880226   -1.0215269327   -0.3846355975
F     2.0980932713   -1.8983258009   -0.9633201361
N    -1.9243973494    2.0350825787   -0.1648224145
C    -0.9955769181    3.0866041183   -0.3557800949
H    -4.3071312904   -0.9573162794    0.5059751868
H    -4.0379223824    0.4507163763   -0.5850876570
H    -3.5357596874    0.5179727077    1.1234579086
H    -0.8786758780   -2.1011860371    0.6425268054
H    -2.5261199474   -2.8534193039    0.4784278274
H    -2.1423931122   -1.6100814342    1.7988926172
H    -3.4261665344   -2.1276271343   -1.3637305498
H    -2.9355971813   -0.6558886170   -2.2465672493
H    -1.6901537180   -1.9207670689   -1.9303767681
H    -1.6429949999    0.5731899738    2.0586025715
H     0.0608605333    2.8248846531   -0.2231089622
H    -1.1921381950    3.4748485088   -1.3987319469
H    -1.2451754808    3.9189348221    0.3292045891
34

O    -0.0883938819   -0.9302129149    1.2247478962
S    -0.7915814519    0.1712640524    0.1529380828
C    -2.1754229069   -0.7966688871    0.0939953849
C    -1.8419921398   -2.1185870171   -0.5902326107
C    -3.3214776516   -0.1903138459   -0.7212006450
C    -2.7659201622   -1.1543883085    1.4497174025
N    -0.6656715274    0.2262979895   -1.2745721340
I     0.5075979829    0.8823682666   -0.3331713378
C     2.5671601295    0.4625682533   -0.1605354249
C     3.0744941235   -0.8143226504   -0.3294983506
F     2.1994242668   -1.8283051252   -0.6176905036
C     4.4384527206   -1.0455855131   -0.2067764699
F     4.9273500443   -2.3057537079   -0.3749391735
C     5.2594652176    0.0316038989    0.0862996876
F     6.5883007050   -0.1962432861    0.2053837925
C     4.7753667831    1.3028019667    0.2570378780
F     5.5828218460    2.3705322742    0.5467782021
C     3.4085071087    1.5079962015    0.1292727888
F     2.9034109116    2.7741289139    0.2965584993
N    -1.5690819025    1.3997746706    1.0921931267
C    -1.8060070276    2.6301567554    0.4072604179
H    -1.9764866829   -1.9894291162   -1.6828647852
H    -2.4427907467   -2.9536991119   -0.1944643259
H    -0.7716566920   -2.3838529587   -0.4533510208
H    -3.9477279186   -1.0161534548   -1.1221951246
H    -2.8962364197    0.4651978910   -1.5089020729
H    -3.9268109798    0.3915716708   -0.0079669040
H    -2.7597639561   -0.3133439422    2.1502311230
H    -3.7652981281   -1.5745439529    1.2372002602
H    -2.0875377655   -1.9459692240    1.8657900095
H    -0.9826930165   -0.0853592902   -2.2198898792
H    -2.8621997833    2.7445578575    0.0725324005
H    -1.5967954397    3.5323102474    1.0405219793
H    -1.1908060312    2.7496013641   -0.5102081299
34

O    -0.4898888171   -0.3930433393   -1.4063133001
S    -1.1354930401   -0.5904929042   -0.2139869630
C    -1.7359397411    1.0163491964    0.1205487549
C    -2.0085952282    1.8181085587   -1.1401405334
C    -0.8625758290    1.7778229713    1.0593011379
C    -3.1033899784    0.8812246323    0.8039439917
N    -1.0501873493   -0.9205755591    1.3419203758
I     0.3780790865   -1.2142667770    0.6577277780
C     2.3131606579   -0.6287593842    0.3397036493
C     2.8415727615   -0.2632938027   -0.8854802847
F     2.0421192646   -0.2880780995   -1.9562709332
C     4.1562657356    0.1253239959   -1.0507645607
F     4.6543135643    0.4799736440   -2.2619500160
C     5.0140171051    0.1646545529    0.0275446028
F     6.2950897217    0.5466230512   -0.1517170370
C     4.5215950012   -0.1905369014    1.2502226830
F     5.3512806892   -0.1607898325    2.3391635418
C     3.2084217072   -0.5790873766    1.4174377918
F     2.7949120998   -0.9161175489    2.6587541103
N    -2.3476371765   -1.6627172232   -0.5668492913
C    -2.5526258945   -2.9696238041   -0.0260057803
H    -1.5254527330    1.2569034100   -1.9777561426
H    -1.6102895737    2.8339290619   -1.0723356009
H    -3.0833559036    1.8517767191   -1.4127409458
H     0.2064043134    1.5665887594    0.9864150286
H    -1.2402449846    1.7235100269    2.1198434830
H    -0.9749064445    2.8698816299    0.8007611036
H    -3.0106053352    0.7245435119    1.8914041519
H    -3.6382555962    1.8380610943    0.6487995386
H    -3.6593630314    0.1095086709    0.2659961283
H    -1.8494046926   -0.9509777427    1.9667787552
H    -1.9382581711   -3.6921958923   -0.5981319547
H    -2.3254952431   -2.9741678238    1.0628786087
H    -3.6352663040   -3.1900599003   -0.1142569482
34

O    -2.9280443192   -1.1018936634    0.6924840212
S    -1.3516277075   -0.9167684913    0.3554002047
C    -1.5141750574    0.7370896935    0.1618611366
C    -0.3413589299    1.5742199421   -0.1795037389
C    -2.1895208359    1.3998541832    1.3726773262
C    -2.5308866501    0.9654255509   -0.9721187353
N    -0.9752416015   -1.7759473324    1.4567534924
I     0.1409499943   -1.2938847542    0.3660486341
C     1.9379553795   -0.3532513380    0.1926703304
C     2.6753332615   -0.0193480756    1.3359140158
F     2.2078528404   -0.3109371960    2.5702593327
C     3.8956069946    0.6135493517    1.2583099604
F     4.6224436760    0.9438523054    2.3572199345
C     4.4096245766    0.9291455746    0.0239414480
F     5.6162977219    1.5578217506   -0.1213561147
C     3.7311427593    0.6257054806   -1.1221810579
F     4.2501020432    0.9433697462   -2.3452117443
C     2.5117688179   -0.0080296248   -1.0133781433
F     1.8696922064   -0.2936922014   -2.1831462383
N    -1.7085083723   -1.6969151497   -1.2632535696
C    -1.8162014484   -3.1059043407   -1.2532427311
H    -0.7388592958    2.6351959705   -0.2464288175
H    -0.0226388015    1.3649990559   -1.2205818892
H     0.4541700780    1.6400861740    0.5602810383
H    -2.8192994595    2.2736833096    1.0545129776
H    -1.4684398174    1.7863245010    2.0996968746
H    -2.9051225185    0.6860046387    1.8424618244
H    -3.5080320835    0.4910377562   -0.7218270898
H    -2.6047952175    2.0279893875   -1.2365387678
H    -2.1212823391    0.3870486021   -1.8327934742
H    -1.2220091820   -2.2636203766    2.3457159996
H    -0.8158726692   -3.5486924648   -1.5111632347
H    -2.2382099628   -3.5037100315   -0.3139016330
H    -2.5028140545   -3.3898077011   -2.0803446770
34

O    -0.3906695247   -0.2434539646   -1.3657593727
S    -0.9799262285   -0.2513038516   -0.1068443209
C    -2.4038743973    0.6981767416   -0.2832981050
C    -2.6083159447    1.2563470602   -1.6749897003
C    -2.5249271393    1.8541436195    0.6765880585
C    -3.5745341778   -0.2512208521    0.0075613796
N    -0.8606522679   -0.1340694726    1.4455024004
I     0.4685209095    0.4361908734    0.7426742315
C     2.4442734718    0.2844372094    0.2691344917
C     3.2669672966   -0.7467549443    0.6769558191
F     2.7592780590   -1.7392413616    1.4432917833
C     4.6033091545   -0.8248542547    0.3413321376
F     5.3903312683   -1.8452078104    0.7526222467
C     5.1822171211    0.1477614939   -0.4330836236
F     6.4898381233    0.0957764089   -0.7767373919
C     4.3928227425    1.1940898895   -0.8599491715
F     4.9574728012    2.1679570675   -1.6310595274
C     3.0592312813    1.2637392282   -0.5198395848
F     2.3349671364    2.3327612877   -0.9796245694
N    -1.3845920563   -1.9120582342   -0.0100585166
C    -0.6446239352   -2.8987178802    0.6614397764
H    -3.6435983181    1.5424585342   -1.8472197056
H    -2.2816176414    0.4247728586   -2.3660452366
H    -1.8520544767    2.0496585369   -1.8316388130
H    -2.5089817047    2.8254346848    0.1699305326
H    -1.7406953573    1.8258135319    1.4684163332
H    -3.4901022911    1.8275268078    1.2440570593
H    -3.4109747410   -0.6222427487    1.0287885666
H    -4.5425930023    0.1970200837   -0.2019154727
H    -3.3557195663   -1.1344009638   -0.6615452170
H    -1.6102232933   -0.2916441560    2.1073138714
H    -1.3674608469   -3.4315528870    1.3464913368
H    -0.3288701475   -3.6765770912   -0.0593078993
H     0.1557772160   -2.4207656384    1.2268159389
34

O    -1.6827571392    0.7368364930    2.2824428082
S    -0.8483396769    0.2875363231    0.5080804825
C    -2.2628564835    0.3989530802   -0.4500756562
C    -3.3201332092    1.3299970627    0.1459095478
C    -2.9963209629   -0.9110841751   -0.6694123745
C    -1.8794955015    0.9853699803   -1.7682399750
N    -0.5587900281    1.7957726717    0.5450904369
I     0.6677343249    0.7664017081    0.3542905450
C     2.6074926853    0.2065180391    0.1182053983
C     3.6491050720    1.0299078226    0.5610026717
F     3.3311781883    2.2220222950    1.1573427916
C     4.9681081772    0.6882789135    0.4202237129
F     5.9240169525    1.5545231104    0.8826369047
C     5.3285675049   -0.4931136072   -0.1696068794
F     6.6401891708   -0.7960618734   -0.2909671664
C     4.3285198212   -1.3299767971   -0.6182106137
F     4.7148499489   -2.4920499325   -1.1976083517
C     2.9979457855   -0.9771910310   -0.4720661640
F     2.0363495350   -1.8125059605   -0.9189532399
N    -0.7945214510   -1.0302528143    0.9028555751
C    -1.3882837296   -2.0462009907    1.6638718843
H    -4.2480478287    1.1538020372   -0.4388636947
H    -3.0773684978    2.3958897591   -0.0170420893
H    -3.4417979717    1.0437895060    1.1898319721
H    -3.7798416615   -1.0502011776    0.1199339852
H    -2.3098340034   -1.7505291700   -0.7522677779
H    -3.5652318001   -0.8252058625   -1.6227785349
H    -2.3262073994    1.9957172871   -1.9576154947
H    -0.7824028134    1.0160709620   -1.9529268742
H    -2.2786107063    0.3494535983   -2.6098814011
H    -1.1158794165    2.6458542347    0.5154768825
H    -0.8181794286   -2.2283549309    2.6210732460
H    -2.4308428764   -1.8765128851    1.9468718767
H    -1.2883142233   -2.9834537506    1.0842756033
34

O    -0.1401195228   -1.8174624443    0.0055297920
S    -0.9958162308   -0.2199228108    0.7157017589
C    -1.7196284533    0.4255768359   -0.6174178720
C    -3.1808352470    0.7867173553   -0.3130625784
C    -1.8248732090   -0.6069801450   -1.7461886406
C    -1.1276155710    1.6716750860   -1.2393498421
N    -0.5723950863    0.1503299624    1.9759845734
I     0.4549292922    0.5118040442    0.7590617537
C     2.4261755943    0.2443156540    0.2038439363
C     3.1030268669    1.2039229870   -0.5140213370
F     2.4692730904    2.3387112617   -0.8613938689
C     4.4325079918    0.9681565166   -0.8607191443
F     5.1224336624    1.8940321207   -1.5662447214
C     5.0435829163   -0.2179119289   -0.4796878099
F     6.3544945717   -0.4480464756   -0.8227443099
C     4.3836989403   -1.1931763887    0.2400944531
F     5.0201115608   -2.3273539543    0.5862540603
C     3.0710148811   -0.9418619275    0.5731249452
F     2.4000310898   -1.8829277754    1.2796469927
N    -2.1233739853   -1.2469959259    1.1448234320
C    -3.0141654015   -1.3751726151    2.2329244614
H    -3.2792804241    1.4055107832    0.5904740691
H    -3.7622187138   -0.1515333951   -0.2683449686
H    -3.5309901237    1.3878971338   -1.1764029264
H    -1.7958111763   -0.1337214261   -2.7353041172
H    -2.7849028111   -1.1804361343   -1.6671220064
H    -1.0138841867   -1.3555673361   -1.7079669237
H    -1.8804574013    2.4227526188   -1.5330662727
H    -0.4137537479    2.1959462166   -0.5787708163
H    -0.5710200071    1.4390511513   -2.1885030270
H    -0.8255451918    0.1863258183    2.9891157150
H    -2.6682872772   -2.1860892773    2.9060111046
H    -3.0088479519   -0.4186895788    2.8048393726
H    -4.0474586487   -1.5288765430    1.8688807487
34

O    -2.5168092251    1.4725779295    0.7407214642
S    -1.2599878311    0.4861199856    0.6251057982
C    -2.1646425724   -0.7272331715   -0.2488651127
C    -2.6852440834   -0.0970849022   -1.5471247435
C    -3.3814747334   -1.1844426394    0.5146855712
C    -1.3847649097   -1.9242254496   -0.6688120365
N    -1.0345194340    0.4764539003    2.0686829090
I     0.0306678042   -0.3056413829    1.1151407957
C     2.0240640640   -0.2742841542    0.5623639226
C     2.6446857452   -1.3908592463   -0.0087524587
F     1.9573217630   -2.5369949341   -0.2200591117
C     3.9705338478   -1.3798652887   -0.3799314797
F     4.5443229675   -2.4914939404   -0.9360845089
C     4.7479352951   -0.2594663501   -0.2029445022
F     6.0465254784   -0.3061687648   -0.5868827105
C     4.1655406952    0.8531078696    0.3559557796
F     4.9607162476    1.9467842579    0.5184596777
C     2.8437049389    0.8324495554    0.7225753665
F     2.3335685730    1.9623818398    1.2674280405
N    -0.5100935698    1.5404620171   -0.5187724233
C    -0.2709091008    2.9125611782   -0.3290032744
H    -3.2223072052   -0.9060453773   -2.0814087391
H    -1.8083810806    0.2332619280   -2.1424186230
H    -3.3731207848    0.7331355810   -1.3505756855
H    -3.5792911053   -0.4160940349    1.3016903400
H    -3.1886849403   -2.1426656246    1.0346636772
H    -4.2891650200   -1.2227914333   -0.1189029589
H    -0.4161913991   -1.6065829992   -1.1059851646
H    -1.2018971443   -2.5842013359    0.2082643211
H    -1.9359601736   -2.4530875683   -1.4504897594
H    -1.2964348793    0.8476491570    3.0113363266
H    -0.0266935360    3.1738908291    0.7191909552
H     0.4763631225    3.2279536724   -1.0628082752
H    -1.1993770599    3.5104386806   -0.5521178246
34

O    -0.6527515650    0.1441796571   -1.6345770359
S    -1.1756430864    0.6165356040   -0.4097301662
C    -1.6516877413   -0.6794944406    0.4577038288
C    -1.0402624607   -1.9808795452   -0.0291370060
C    -3.1672194004   -0.8382251859    0.3877578974
C    -1.3307522535   -0.6863752604    1.9598841667
N    -1.0866477489    1.7026851177    0.7193305492
I     0.3501822650    1.6205478907   -0.0432952195
C     2.1589088440    0.6004265547    0.0272676684
C     2.7742052078    0.1685563028    1.1704767942
F     2.1624710560    0.4222463667    2.3515806198
C     3.9794275761   -0.5071902275    1.1645972729
F     4.5761828423   -0.9301134944    2.3268582821
C     4.6118836403   -0.7701573968   -0.0474538840
F     5.8034048080   -1.4380705357   -0.0551952086
C     4.0133137703   -0.3458535671   -1.2146633863
F     4.6209902763   -0.5969098806   -2.4003584385
C     2.8097145557    0.3262622654   -1.1728838682
F     2.2652363777    0.7212060094   -2.3532824516
N    -2.4949281216    1.5188834667   -1.1244689226
C    -2.1970252991    2.5306723118   -2.0612165928
H    -1.4001519680   -2.1319649220   -1.0579936504
H    -1.2644613981   -2.8107087612    0.6696074009
H     0.0583956055   -1.8037055731   -0.1029395238
H    -3.4669113159   -1.8512489796    0.0173176378
H    -3.6030218601   -0.1373505145   -0.3697161078
H    -3.6719620228   -0.6895600557    1.3484082222
H    -0.2576768398   -0.7581326365    2.1510059834
H    -1.8816210032    0.0870817676    2.5061471462
H    -1.7605154514   -1.6584880352    2.3395316601
H    -1.7983028889    1.8306441307    1.4378103018
H    -1.5754309893    2.0885400772   -2.8868958950
H    -3.1472120285    2.9139633179   -2.4658615589
H    -1.5601309538    3.3219983578   -1.6056164503
34

O    -2.4037249088   -0.9848568439   -2.1431510448
S    -1.4006521702    0.2593834400   -1.1217870712
C    -1.5715144873   -0.6790522337    0.0860095471
C    -0.9868974686   -2.0895245075   -0.0556084700
C    -3.0017242432   -0.9794149995    0.5511302948
C    -0.9074202776   -0.1620101035    1.3722020388
N    -0.9818658829    0.8636829853   -2.3370890617
I     0.1304541379    0.4415969253   -1.2534677982
C     2.0208623409    0.1521160901   -0.5580037832
C     2.6071166992    1.0350985527    0.3352240920
F     1.9093704224    2.1333873272    0.7690947652
C     3.9030940533    0.8377166390    0.8127388358
F     4.3930687904    1.7613667250    1.6886137724
C     4.6317768097   -0.2549981773    0.3974186480
F     5.8871307373   -0.4210990369    0.8774476051
C     4.0610127449   -1.1337596178   -0.4855141640
F     4.7844038010   -2.2172517776   -0.8969107866
C     2.7766020298   -0.9383310080   -0.9588998556
F     2.2976396084   -1.8676903248   -1.8335208893
N    -2.6807184219    1.3791803122   -0.7324441075
C    -2.2768890858    2.6925122738   -0.4755416512
H     0.0688867271   -2.0976943970   -0.3243046403
H    -1.6656394005   -2.6061987877   -0.7665143609
H    -1.1918932199   -2.5635807514    0.9380324483
H    -3.5057675838    0.0250339508    0.6100484729
H    -2.9959328175   -1.3902323246    1.5727951527
H    -3.5552477837   -1.5627621412   -0.1884970814
H     0.1621231884   -0.4527940452    1.3193625212
H    -1.0438017845    0.9424974918    1.4550086260
H    -1.3167440891   -0.6772025228    2.2618329525
H    -1.4731303453    1.3049794436   -3.1147096157
H    -1.1936500072    2.8826904297   -0.5614956021
H    -2.8267531395    3.3795852661   -1.1766953468
H    -2.6535749435    2.9876258373    0.5477806926
34

O    -0.3243564069   -1.1430964470   -0.0766696334
S    -0.8301755190    0.0337338820   -0.3737961650
C    -2.4053118229    0.0566846654    0.3851256967
C    -2.8854136467   -1.3536185026    0.7386743426
C    -3.4508574009    0.6457301974   -0.5217579007
C    -2.3791482449    0.8265533447    1.7037388086
N    -0.6999157071    1.6785510778   -0.2904997468
I     0.4942894876    1.0074106455    0.5656561852
C     2.4771962166    0.4741191268    0.6212697029
C     3.1002027988    0.0181312319   -0.5418551564
F     2.3848192692   -0.0601422973   -1.6698253155
C     4.4382023811   -0.3527576327   -0.5493707061
F     5.0553679466   -0.7976093292   -1.6734457016
C     5.1687026024   -0.2648282945    0.6353273988
F     6.4862360954   -0.6256852150    0.6457611322
C     4.5496101379    0.1884095073    1.7916139364
F     5.2990012169    0.2594734430    2.9285793304
C     3.2050981522    0.5610728264    1.7990431786
F     2.6460008621    0.9974671602    2.9543008804
N    -0.8981825113    0.0890603065   -2.0205750465
C    -0.6813392043   -1.0132930279   -2.9279448986
H    -4.0007081032   -1.3561125994    0.7494012117
H    -2.4625828266   -1.7183541059    1.6810688972
H    -2.5936818123   -1.9974777699   -0.1394228637
H    -4.1866683960    1.2286427021    0.0879187360
H    -3.9704811573   -0.1629730761   -1.0672562122
H    -3.0430741310    1.3251278400   -1.2954533100
H    -1.5611240864    0.4332000911    2.3347952366
H    -2.3085646629    1.9220407009    1.5331176519
H    -3.3373079300    0.6198546290    2.2198164463
H    -1.3890570402    2.3336884975   -0.6555351019
H     0.3998005688   -1.1836975813   -3.1146004200
H    -1.1756968498   -1.9318060875   -2.5480556488
H    -1.1208807230   -0.7374997735   -3.9091451168
34

O    -0.1171957180   -1.4660760164   -0.8203191161
S    -0.9926010966   -0.6295143962    0.4844523072
C    -2.1016552448    0.4214432836   -0.2084700167
C    -3.5225663185   -0.0599901415   -0.3740091324
C    -1.6955078840    0.9514286518   -1.5905884504
C    -2.2129456997    1.6740916967    0.6681069136
N    -0.4585051537   -0.6197792292    1.8559587002
I     0.2899798453    0.3860434294    0.8023384809
C     2.2831172943    0.5777907372    0.1578182131
C     2.6447241306    0.3405430913   -1.1504176855
F     1.7168817520   -0.0276190676   -2.0716729164
C     3.9720094204    0.4867866337   -1.4984689951
F     4.3999719620    0.2688317001   -2.7716069221
C     4.9283404350    0.8650600910   -0.5541703105
F     6.2207555771    1.0118148327   -0.8738369346
C     4.5541105270    1.1043180227    0.7722899914
F     5.4613385201    1.4723422527    1.7081582546
C     3.2234356403    0.9537150860    1.1037709713
F     2.8456068039    1.1845653057    2.3961675167
N    -1.8681315184   -1.9169745445    0.6720007062
C    -1.5388722420   -3.2889790535    0.9288259149
H    -4.2884888649    0.6553842425   -0.0592973828
H    -3.6511213779   -0.9723742008    0.2605635226
H    -3.7051651478   -0.3973648846   -1.4189947844
H    -1.8806918859    0.1636444032   -2.3490254879
H    -0.6579909325    1.3049929142   -1.5979368687
H    -2.4102809429    1.7787288427   -1.8332474232
H    -2.0443849564    1.3250579834    1.7276626825
H    -1.3809481859    2.3497073650    0.4301964045
H    -3.2032001019    2.1370806694    0.6016470790
H    -0.4892390668   -1.0680335760    2.7979679108
H    -1.8451294899   -3.4993472099    1.9793205261
H    -2.0495915413   -4.0078749657    0.2690523565
H    -0.4260593355   -3.4594440460    0.9207918048
34

O    -0.2064626515   -0.7753204107    1.0023113489
S    -0.8370251060    0.1746513695   -0.2428159565
C    -2.2480702400   -0.7141869068   -0.2484488040
C    -2.1621475220   -2.0878486633   -0.9290845394
C    -3.3175289631    0.0518063493   -1.0407330990
C    -2.8923387527   -0.9800053835    1.1027439833
N    -0.6308497190    0.0278945304   -1.6686517000
I     0.4931953251    0.8104841113   -0.7744103670
C     2.5272524357    0.4883851111   -0.3394786417
C     3.3430140018    1.6111124754   -0.2968465984
F     2.8253893852    2.8619818687   -0.5305933356
C     4.6763687134    1.4122542143   -0.0130311912
F     5.4717235565    2.5345385075    0.0256283469
C     5.2001910210    0.1551401019    0.2225957066
F     6.5055360794   -0.0175681245    0.4981260002
C     4.3575053215   -0.9610347748    0.1739680916
F     4.8297405243   -2.2147195339    0.3990558684
C     3.0277571678   -0.7829622030   -0.1069474220
F     2.1661560535   -1.8227914572   -0.1673398465
N    -1.5986739397    1.5561782122    0.4649891853
C    -1.0787082911    2.1079103947    1.6922712326
H    -2.1366224289   -2.9067342281   -0.1556992978
H    -1.3130047321   -2.1745498180   -1.6076891422
H    -3.0772099495   -2.3092892170   -1.5163036585
H    -2.8150353432    0.6819573045   -1.8079791069
H    -3.7702898979    0.7641465068   -0.3289241791
H    -4.0920443535   -0.6116494536   -1.4271537066
H    -2.1916747093   -1.4365460873    1.8110276461
H    -3.3839454651   -0.0625185966    1.4845128059
H    -3.7203438282   -1.6929696798    0.8814852834
H    -0.9146528244   -0.4120654464   -2.5716376305
H    -1.6625310183    1.5968412161    2.5031874180
H     0.0064171255    1.9581760168    1.7747488022
H    -1.3810873032    3.1693017483    1.7371163368
34

O    -2.3163449764    1.3452668190    1.4823677540
S    -1.1294817924   -0.4085341990    0.9586181045
C    -1.4807729721    0.2098901123   -0.4911519289
C    -0.8338698149   -0.6575014591   -1.5877583027
C    -1.0074132681    1.6136318445   -0.8600798249
C    -2.9627242088    0.2196622938   -0.8814901114
N    -0.6693904996   -0.1003551409    2.3088297844
I     0.3699891865   -0.0106151309    1.0787198544
C     2.2131438255    0.1939834803    0.2407686114
C     2.8679449558    1.4087799788    0.1789932996
F     2.3190398216    2.5405011177    0.6748847365
C     4.1291422844    1.5427731276   -0.3955959380
F     4.7695097923    2.7378797531   -0.4545604289
C     4.7671046257    0.4238274097   -0.9313589334
F     5.9990491867    0.5420043468   -1.4952391386
C     4.1231565475   -0.8049135804   -0.8776477575
F     4.7401585579   -1.9156677723   -1.4017089605
C     2.8726441860   -0.9154437184   -0.3033153117
F     2.2658057213   -2.1398725510   -0.2664400637
N    -2.2947018147   -1.4195206165    1.1627185345
C    -3.0357375145   -1.9496818781    2.2450928688
H     0.2491245717   -0.3674387336   -1.5398643017
H    -1.2721984386   -0.3580645919   -2.5722982883
H    -0.9659956098   -1.7143161297   -1.3444132805
H    -1.7256188393    2.3383979797   -0.3886633515
H    -1.1370428801    1.7905803919   -1.9610922337
H     0.0074488986    1.8327747583   -0.5274212360
H    -3.0917890072    0.2149727494   -1.9937123060
H    -3.4673156738   -0.6657537222   -0.4084723592
H    -3.4649097919    1.1316422224   -0.5025902987
H    -1.0903464556   -0.2338617295    3.2291042805
H    -2.6257646084   -2.9767229557    2.4571840763
H    -2.9947528839   -1.3614218235    3.1719319820
H    -4.1270914078   -2.0868828297    1.9956604242
34

O    -0.7950498462    0.5423910022   -1.6442934275
S    -0.9768453836    0.3274684250   -0.3583313823
C    -2.3818359375   -0.7468716502   -0.2887725532
C    -3.0728244781   -0.8920968771   -1.6057678461
C    -3.4320557117   -0.1616957188    0.6639494300
C    -1.8487659693   -2.0332112312    0.2609198987
N    -0.8143649101    0.3978748918    1.2095743418
I     0.4901276231    0.1527951956    0.3042496145
C     2.4684076309   -0.1156020686   -0.0539627671
C     2.9493093491   -0.7971795797   -1.1576120853
F     2.0202269554   -1.2932680845   -2.0155322552
C     4.2981758118   -0.9756675959   -1.3943979740
F     4.6635746956   -1.6491817236   -2.4896593094
C     5.2249751091   -0.4765013158   -0.5314953923
F     6.5449314117   -0.6573942304   -0.7735193968
C     4.7837843895    0.2067551464    0.5766223073
F     5.7178483009    0.7094995379    1.4457211494
C     3.4388532639    0.3872047663    0.8168069720
F     3.0818033218    1.0796856880    1.9437223673
N    -1.8789921999    2.0342180729   -0.1357905716
C    -0.9705325961    3.0990335941   -0.3383609653
H    -4.1371979713   -1.1311742067   -1.4681453705
H    -2.6255235672   -1.6671816111   -2.2554471493
H    -3.0761039257    0.1227340773   -2.1024744511
H    -3.2691528797    0.9348921776    0.7008181214
H    -3.2479689121   -0.6144003868    1.6772185564
H    -4.4548039436   -0.4203616083    0.3864125013
H    -1.2323815823   -2.4873435497   -0.5638320446
H    -1.1477034092   -1.8096473217    1.0790202618
H    -2.6269979477   -2.7619335651    0.5467555523
H    -1.4879918098    0.4330190718    1.9711487293
H     0.0874960274    2.8015825748   -0.3861480951
H    -1.2187143564    3.5670483112   -1.3336439133
H    -1.0737063885    3.8945097923    0.4029244781
34

O    -0.2476639599   -0.0407790206    1.4503774643
S    -0.8780814409    0.3397419453    0.2854265273
C    -2.3140771389   -0.7368971109    0.3576138318
C    -1.8496557474   -2.0921008587   -0.1011279374
C    -3.4177374840   -0.2129831165   -0.5053917766
C    -2.7936921120   -0.8605948091    1.7834416628
N    -0.8601608872    0.2325161994   -1.3231272697
I     0.5092608333   -0.4260554910   -0.7848759890
C     2.5094144344   -0.2414999455   -0.3709255755
C     3.0115652084   -0.4559212327    0.9147174954
F     2.1845338345   -0.7981775403    1.9488168955
C     4.3542027473   -0.3345379829    1.2039223909
F     4.8009653091   -0.5556110144    2.4850594997
C     5.2397012711    0.0086579677    0.2021234035
F     6.5709161758    0.1364196539    0.4551567137
C     4.7833542824    0.2288920879   -1.0812275410
F     5.6750121117    0.5699973702   -2.0697836876
C     3.4225423336    0.1038916111   -1.3653995991
F     2.9662830830    0.3193688989   -2.6270861626
N    -1.1789342165    1.8650066853    0.3719132841
C    -1.3813921213    2.9506173134   -0.5075158477
H    -2.7014613152   -2.7853305340    0.0706532970
H    -0.9510143399   -2.3966367245    0.4805368781
H    -1.5671148300   -2.1349956989   -1.1660809517
H    -3.4333877563   -0.8131262660   -1.4470423460
H    -3.3715186119    0.8718513846   -0.7151061296
H    -4.3899569511   -0.3766214252    0.0048240721
H    -2.0228960514   -1.3144797087    2.4344322681
H    -3.0271985531    0.1635557860    2.1417233944
H    -3.7170526981   -1.4362763166    1.7519577742
H    -1.6208798885    0.5528426170   -1.9147760868
H    -0.4210957289    3.4806327820   -0.6731381416
H    -1.6912895441    2.5494418144   -1.4964319468
H    -2.1914899349    3.6391909122   -0.1936598718
34

O    -1.9401805401    2.4266574383    0.0824662149
S    -1.0125362873    0.5135784149   -0.0549495965
C    -2.2855122089   -0.1850462258   -0.9625689983
C    -1.6258537769   -1.0037186146   -2.0710639954
C    -3.1885712147    0.8037580252   -1.6704326868
C    -3.1546895504   -1.1543083191   -0.1890816092
N    -0.3984179795    1.2761877775   -1.1970990896
I     0.4691202939    0.6360261440    0.0307191815
C     2.4387733936    0.3336898386    0.3861507177
C     3.2227137089    1.3145023584    1.0058734417
F     2.6717102528    2.4922857285    1.3811799288
C     4.5627965927    1.1168330908    1.2512421608
F     5.3381905556    2.0700678825    1.8569142818
C     5.1864452362   -0.0571250096    0.8955365419
F     6.5044903755   -0.2626806200    1.1320124865
C     4.4261798859   -1.0303457975    0.2849610746
F     5.0275549889   -2.1914300919   -0.0706877187
C     3.0778250694   -0.8504763246    0.0298183504
F     2.3499109745   -1.8362680674   -0.5781931281
N    -1.5552687645    0.4410362840    1.3003153801
C    -1.1652672291    0.4566034675    2.6766545773
H    -1.6602600813   -2.1043190956   -1.8383185863
H    -0.5604048967   -0.7219809294   -2.2288868427
H    -2.1688811779   -0.9134594798   -3.0367414951
H    -2.8563754559    1.8580390215   -1.5201593637
H    -4.2104058266    0.7475054860   -1.2519224882
H    -3.2774829865    0.6269858479   -2.7585415840
H    -2.7399852276   -2.1641666889   -0.1881049275
H    -3.2781958580   -0.7170976996    0.8405591846
H    -4.1923866272   -1.1320973635   -0.6209024787
H    -0.6675617099    1.6382710934   -2.1097805500
H    -1.6672368050   -0.4367697835    3.1463305950
H    -0.0805621669    0.3122383952    2.8401033878
H    -1.5896745920    1.3346483707    3.2065973282
34

O    -0.2124089152   -0.8616825342    1.0886405706
S    -0.7224966288    0.1803016067    0.2520655096
C    -2.2640655041   -0.3728076816   -0.1512185782
C    -2.7880260944   -0.0550284348   -1.5258159637
C    -3.2532525063    0.2765795290    0.8195847273
C    -2.4599242210   -1.8705120087    0.0145296669
N    -0.4427397847    1.1381729841   -0.9405571222
I     0.6521205902   -0.0548014082   -0.9805604815
C     2.6304399967   -0.4413473010   -0.5366641283
C     3.4910871983   -0.8409391046   -1.5394841433
F     3.0654101372   -0.9847152233   -2.8077952862
C     4.8202471733   -1.0898306370   -1.1853264570
F     5.7183613777   -1.4848948717   -2.1185245514
C     5.2583308220   -0.9435958862    0.1110181659
F     6.5581445694   -1.1918927431    0.4320465326
C     4.3987298012   -0.5452595949    1.1086273193
F     4.8275914192   -0.3984573185    2.3965210915
C     3.0793590546   -0.2964303493    0.7662284970
F     2.2075865269    0.0959112644    1.7178699970
N    -0.6805504560    1.4271148443    1.3668795824
C    -1.3419555426    2.6708886623    1.3326967955
H    -1.9677073956   -0.0020690488   -2.2800111771
H    -3.3613784313    0.9112378955   -1.5511233807
H    -3.5005266666   -0.8188591003   -1.9006646872
H    -2.7667107582    0.6695910096    1.7096105814
H    -4.0490832329   -0.4270244241    1.1336839199
H    -3.7866821289    1.1357830763    0.3307914436
H    -3.1508963108   -2.3128497601   -0.7093383670
H    -1.4733703136   -2.4024736881   -0.0978733599
H    -2.8748259544   -2.1090657711    1.0245893002
H    -1.1385262012    1.8307811022   -1.2391626835
H    -0.5314186811    3.4533131123    1.2617167234
H    -2.0273427963    2.8094108105    0.4627945721
H    -1.9135200977    2.9054512978    2.2342252731
34

O    -2.5072617531   -2.0488634109    0.8156786561
S    -1.1952127218   -1.1529166698   -0.2001745999
C    -1.8390771151    0.2166623771    0.0190219004
C    -1.1148840189    1.4033645391   -0.6454554796
C    -1.9925426245    0.8428683281    1.4298813343
C    -3.2638223171    0.4900781810   -0.5130608678
N    -0.5008662939   -2.3911657333   -0.2596426308
I     0.2642203271   -1.0727733374    0.2098860294
C     2.0103962421   -0.2403100878    0.7623447180
C     2.8754980564    0.3537067175   -0.1612657756
F     2.4802041054    0.3440559804   -1.4649219513
C     4.0654048920    0.9202432036    0.2198235244
F     4.8701567650    1.4861052036   -0.7269364595
C     4.4603300095    0.9268125296    1.5425938368
F     5.6324191093    1.4814234972    1.9406524897
C     3.6144332886    0.3406040370    2.4811522961
F     4.0399656296    0.3671349585    3.7781546116
C     2.4397885799   -0.2159341574    2.0869505405
F     1.6518117189   -0.7766621709    3.0579066277
N    -1.9439085722   -1.4619714022   -1.8414303064
C    -1.0717059374   -1.5115406513   -2.9397251606
H    -0.1185363159    1.5342583656   -0.1537110806
H    -1.6940233707    2.3378949165   -0.4907817245
H    -1.0449110270    1.2368338108   -1.7391684055
H    -0.9658049941    0.8125464916    1.8657277822
H    -2.7057418823    0.1629729867    1.9400625229
H    -2.3974225521    1.8633630276    1.3562202454
H    -3.2628395557    0.3040228784   -1.6110632420
H    -3.9686508179   -0.2729032636   -0.0809415579
H    -3.5996282101    1.4933285713   -0.2583019435
H    -0.6563442945   -3.3641505241   -0.5236365199
H    -0.7613931298   -2.5223250389   -3.2735979557
H    -1.6131522655   -1.0579341650   -3.8160312176
H    -0.1868991554   -0.8288298249   -2.8062105179
34

O    -0.6023731828   -0.0518775694    1.4370746613
S    -0.9889225960    0.4726619720    0.2627361119
C    -2.2117912769   -0.7225508094   -0.2622226775
C    -1.4457730055   -1.7357325554   -1.0392923355
C    -3.3083429337   -0.0672107115   -1.0706447363
C    -2.9203982353   -1.3232389688    0.9420107603
N    -0.8703727126    1.0941100121   -1.1663604975
I     0.5289571881    0.7165022492   -0.4914717376
C     2.4610230923    0.1868616641   -0.3532789350
C     3.4329488277    0.6667034030   -1.2368944883
F     3.0517244339    1.5294561386   -2.2325890064
C     4.7506451607    0.2875713110   -1.1197856665
F     5.6315627098    0.8049623966   -2.0260143280
C     5.1806116104   -0.5772307515   -0.1350817680
F     6.4703950882   -0.9470034242   -0.0221821908
C     4.2397017479   -1.0557588339    0.7382095456
F     4.5805044174   -1.9121164083    1.7369694710
C     2.9275035858   -0.6885450482    0.6347916126
F     2.0078303814   -1.1687542200    1.5043431520
N    -1.9308824539    1.8703794479    0.8323997259
C    -1.4361855984    2.6603856087    1.9051940441
H    -2.1381847858   -2.5714650154   -1.2628968954
H    -0.6740502715   -2.1638824940   -0.3729798496
H    -1.0171544552   -1.2601665258   -1.9217109680
H    -3.0810790062   -0.1998780966   -2.1328630447
H    -3.3449668884    1.0164064169   -0.7889438868
H    -4.3062396049   -0.5004979372   -0.8940074444
H    -3.5207903385   -0.4933613241    1.3735895157
H    -3.5894012451   -2.0831503868    0.5461998582
H    -2.1910488605   -1.7299675941    1.6701837778
H    -1.6063008308    1.4219769239   -1.7868372202
H    -1.0320972204    1.9562646151    2.6905832291
H    -0.7300538421    3.4446375370    1.6442319155
H    -2.3169989586    3.1235089302    2.3975400925
34

O    -0.8853408694   -0.2417483926   -1.4931468964
S    -0.9999478459   -0.3718799353   -0.1979745179
C    -2.4108231068    0.6004023552    0.2214528471
C    -3.4005765915   -0.2097158581    1.0337523222
C    -3.1498153210    1.1196942329   -0.9666628242
C    -1.8892114162    1.7192000151    1.0716561079
N    -0.7388460636   -0.7725205421    1.3062721491
I     0.5271193385   -0.3431985080    0.4148283005
C     2.4529900551    0.1182870567    0.0027511069
C     2.9818999767    1.3749489784    0.2904253900
F     2.1856694221    2.3032388687    0.8578205705
C     4.2943463326    1.6987591982    0.0128994249
F     4.7315983772    2.9587168694    0.3291408122
C     5.1373100281    0.7736123800   -0.5673335791
F     6.4199151993    1.1299364567   -0.8243913054
C     4.6376600266   -0.4800525308   -0.8626937270
F     5.4904050827   -1.3902852535   -1.4405546188
C     3.3244924545   -0.8011193871   -0.5839781165
F     2.9151484966   -2.0485975742   -0.9041449428
N    -1.8361901045   -2.1160092354   -0.3346361816
C    -0.7291120887   -2.9967136383   -0.6826403141
H    -3.1571195126   -0.0627346858    2.1074972153
H    -3.2753005028   -1.3110022545    0.8677234054
H    -4.4376964569    0.1213926300    0.8952343464
H    -4.0234670639    0.4848869741   -1.2530710697
H    -2.4757983685    1.2211822271   -1.8606551886
H    -3.5606513023    2.1317689419   -0.7625519037
H    -1.0579301119    1.3355751038    1.6837841272
H    -1.5202841759    2.5046119690    0.3509424031
H    -2.7218163013    2.1345312595    1.6871391535
H    -1.3429721594   -1.0540214777    2.0713665485
H    -0.4857718945   -2.7033236027   -1.7417720556
H     0.1498694718   -2.8288898468   -0.0600844249
H    -1.1497529745   -3.9989330769   -0.6683946848
34

O    -0.7070157528    0.0406315550    1.4965333939
S    -1.1125984192    0.5395141244    0.2217020541
C    -1.7383595705   -0.8258539438   -0.5234286785
C    -2.9707424641   -1.2528830767    0.2942942977
C    -0.7912487984   -1.9808362722   -0.4278778732
C    -2.2257995605   -0.7271071672   -1.9315158129
N    -0.9296527505    1.4441273212   -0.9812527299
I     0.4273317456    1.3674695492   -0.1195771024
C     2.2839131355    0.5550695658    0.1910364181
C     2.8796699047    0.5812571049    1.4257755280
F     2.2010397911    1.1627211571    2.4378788471
C     4.1304187775    0.0331869088    1.6319731474
F     4.7286291122    0.0541149341    2.8504867554
C     4.8007111549   -0.5584934950    0.5635392666
F     6.0330691338   -1.1131285429    0.7088336349
C     4.2239603996   -0.6013575196   -0.7011074424
F     4.8515610695   -1.1701884270   -1.7600995302
C     2.9729483128   -0.0415486470   -0.8613523841
F     2.4190852642   -0.0905521214   -2.1068058014
N    -2.4438393116    1.5338948965    0.8466734290
C    -2.1939795017    2.8807053566    1.1801501513
H    -2.9488825798   -0.8382027149    1.3194268942
H    -3.0353317261   -2.3514790535    0.3986542821
H    -3.9060571194   -0.9058914185   -0.1817520857
H    -0.4732291698   -2.2144372463    0.6094815731
H     0.0691001490   -1.8667029142   -1.1176902056
H    -1.3401492834   -2.8820447922   -0.7831324935
H    -1.3645246029   -0.4685018957   -2.5815150738
H    -2.7546734810   -1.6383090019   -2.2119858265
H    -3.0112705231    0.0820119232   -1.9718101025
H    -1.6343811750    1.6008274555   -1.7050845623
H    -3.0115585327    3.2079708576    1.8550497293
H    -1.2119796276    2.9473915100    1.6881961823
H    -2.2161638737    3.4966242313    0.2463021427
34

O    -2.2691180706    1.7835161686   -1.2467678785
S    -1.2193636894    0.6452990770   -0.6189154983
C    -2.0875940323   -0.6652505398    0.1189923808
C    -3.1902129650   -1.1980109215   -0.7855358720
C    -2.7659411430   -0.2515000105    1.4079232216
C    -1.1207964420   -1.7686877251    0.3689837158
N    -0.9936951995   -0.0797079057   -1.9323246479
I     0.4161348045    0.4487387836   -1.3702654839
C     2.2292094231    0.1961800307   -0.4653462470
C     2.9115569592   -1.0177640915   -0.5643241405
F     2.3764584064   -2.0609359741   -1.2704834938
C     4.1293377876   -1.2232238054    0.0293974578
F     4.7932648659   -2.4001402855   -0.0652339011
C     4.7359461784   -0.2188786715    0.7598897219
F     5.9392428398   -0.3986737430    1.3556531668
C     4.0899200439    0.9759240150    0.8714650869
F     4.6797509193    1.9695985317    1.5884757042
C     2.8597691059    1.1794793606    0.2701452076
F     2.2788572311    2.3915772438    0.4245884418
N    -0.7270206213    1.3056733608    0.5556253195
C    -0.8437931538    2.5982251167    1.1174284220
H    -2.8976063728   -2.1606166363   -1.2610180378
H    -3.5170783997   -0.4398935735   -1.5400733948
H    -4.1225538254   -1.4414929152   -0.2162525356
H    -3.4056828022   -1.0571531057    1.7644740343
H    -3.3253557682    0.6957586408    1.1536282301
H    -1.9669697285    0.0678152218    2.1031167507
H    -0.2539258599   -1.3597979546    0.9276120663
H    -1.6346180439   -2.4975235462    1.0517511368
H    -0.8530365825   -2.3479430676   -0.5273714662
H    -1.6951413155   -0.4770040512   -2.5460219383
H    -0.3512417376    2.5296390057    2.1164278984
H    -0.2974010706    3.3921964169    0.5604975224
H    -1.9013019800    2.8845775127    1.3408790827
34

O    -2.5066208839    1.4602962732   -0.5680289865
S    -1.2085471153    0.5367108583   -0.4977843165
C    -2.1397204399   -0.8760449290   -0.0461336225
C    -3.0720496178   -0.5536409020    1.1295149326
C    -1.3103132248   -2.0399966240    0.4091455042
C    -2.9640331268   -1.2676811218   -1.2288084030
N    -0.8058841228    0.8646966219   -1.8637675047
I     0.1597228944   -0.1183431521   -0.9836686254
C     2.0931398869   -0.0834461898   -0.2168592364
C     2.7042794228   -1.1472276449    0.4105523825
F     2.0184507370   -2.2844636440    0.5414884090
C     3.9891581535   -1.0992989540    0.9112976789
F     4.5410299301   -2.1853663921    1.5228101015
C     4.7012801170    0.0571131445    0.7840880752
F     5.9711833000    0.1180805489    1.2741358280
C     4.1207923889    1.1507384777    0.1583397537
F     4.8729114532    2.2645688057    0.0625099167
C     2.8288054466    1.0865986347   -0.3394615054
F     2.3131604195    2.1920809746   -0.9433191419
N    -0.6613324881    1.3229291439    0.9330671430
C    -0.4913917780    2.7178287506    1.0575246811
H    -2.5375204086   -0.6614997983    2.0993008614
H    -3.8646256924   -1.3389664888    1.0814644098
H    -3.4798104763    0.4546748400    0.9748426676
H    -1.9953669310   -2.9099640846    0.4507440925
H    -0.8491192460   -1.9196029902    1.4030480385
H    -0.5351179242   -2.3310718536   -0.3324726224
H    -2.2485196590   -1.3886997700   -2.0853066444
H    -3.4419362545   -2.2558138371   -1.0117615461
H    -3.7342929840   -0.5105937719   -1.3965271711
H    -0.9722026587    1.4209990501   -2.7323815823
H    -0.9621428847    3.2288322449    0.1808750480
H    -1.0961170197    3.0495355129    1.9450081587
H     0.5627509952    3.0460379124    1.1247054338
34

O    -2.2731962204    2.0306549072    1.1686705351
S    -1.2064759731    0.4315650761    1.0078321695
C    -1.8327990770    0.2662627995   -0.4009871483
C    -1.3812768459   -0.9668810368   -1.1651155949
C    -1.5119571686    1.4402525425   -1.3473123312
C    -3.3692371845    0.2100064605   -0.4874828756
N    -0.5301789641    0.8720748425    2.1599233150
I     0.2767039835    0.5056732297    0.8011689186
C     2.1090919971    0.2768877745   -0.0111360243
C     2.3656599522    0.2170519233   -1.3825057745
F     1.3376628160    0.3160963058   -2.2535376549
C     3.6232445240    0.0609275252   -1.8987464905
F     3.7982888222    0.0107871760   -3.2559144497
C     4.7192740440   -0.0469226129   -1.0721498728
F     5.9735450745   -0.2015744597   -1.5394885540
C     4.5070075989    0.0073130401    0.2764129043
F     5.5592637062   -0.0943915620    1.1531171799
C     3.2538995743    0.1628943235    0.7913341522
F     3.0844874382    0.2124142498    2.1498472691
N    -2.3065261841   -0.6736505628    1.8288387060
C    -1.6754798889   -1.7511053085    2.4858179092
H    -1.9932391644   -1.8488218784   -0.8882805705
H    -0.3449783027   -1.2007840872   -0.7846347094
H    -1.4074708223   -0.8057705164   -2.2608826160
H    -0.5351502299    1.8897434473   -1.0688573122
H    -2.2692718506    2.2402460575   -1.2397600412
H    -1.5329513550    1.1181700230   -2.4058432579
H    -3.8395948410    0.9566286802    0.1789816916
H    -3.7007660866    0.3786044121   -1.5246312618
H    -3.6442675591   -0.8330717087   -0.2225261331
H    -0.7749424577    1.0720424652    3.1330208778
H    -0.6234717369   -1.5473967791    2.7620258331
H    -2.1805765629   -2.0296707153    3.4406087399
H    -1.6743210554   -2.6762559414    1.8721926212
34

O    -2.1196682453   -2.4752168655   -0.2789075673
S    -1.0316405296   -1.1012077332    0.4968486726
C    -1.8774790764   -0.0515976064   -0.3000368774
C    -1.5943210125    1.3795799017    0.1469138265
C    -3.4168233871   -0.1143923029   -0.2532238364
C    -1.5775837898   -0.0679738298   -1.8028696775
N    -0.2703388035   -2.0848309994    1.0786062479
I     0.3656325936   -0.8679084778    0.2167984694
C     2.1124746799   -0.0874202326   -0.4216682315
C     3.3425230980   -0.6539144516   -0.0622537211
F     3.3583154678   -1.7662676573    0.7432330251
C     4.5408143997   -0.1525510252   -0.4754970968
F     5.7191743851   -0.7389394641   -0.0995529070
C     4.6214976311    0.9488231540   -1.2771658897
F     5.7968564034    1.4393748045   -1.6816004515
C     3.4237110615    1.5420601368   -1.6573507786
F     3.4549009800    2.6536984444   -2.4644839764
C     2.2085864544    1.0354254246   -1.2395645380
F     1.1000921726    1.6719280481   -1.6550784111
N    -2.0777261257   -0.8459764123    1.9779849052
C    -1.4058437347   -0.4326464832    3.1460838318
H    -0.5398175120    1.4894567728    0.4779175520
H    -2.2343566418    1.5264744759    1.0663725138
H    -1.9236818552    2.1283493042   -0.5834252834
H    -3.7917838097   -1.0424300432   -0.7173777223
H    -3.8562712669    0.7665171623   -0.7504231930
H    -3.7348999977   -0.0894037560    0.8098655939
H    -2.3007683754   -0.7090172172   -2.3142268658
H    -1.5980408192    0.9465796947   -2.2444810867
H    -0.5529632568   -0.4494415820   -1.9885034561
H    -0.4005965292   -2.8946611881    1.6951360703
H    -0.4601309299    0.1178700700    2.9547586441
H    -2.0628538132    0.3061402738    3.6813576221
H    -1.2169897556   -1.3264805079    3.7758147717
34

O    -0.3276689649   -1.1697746515    0.3607465923
S    -0.8867419362    0.5351447463    0.0144817382
C    -2.2898478508   -0.1594367772   -0.5895818472
C    -3.2163288593    0.8975082636   -1.2048957348
C    -3.1600499153   -0.8555499315    0.4684164524
C    -2.0996975899   -1.2169289589   -1.6708866358
N    -0.5211040974    1.1433722973   -1.2381393909
I     0.5768516660    1.1221716404   -0.0169734880
C     2.5578370094    0.3967922926    0.0116636027
C     3.3853230476    0.6763963699    1.0917830467
F     2.9541265965    1.4132038355    2.1469614506
C     4.6870088577    0.1967373490    1.1050441265
F     5.5357809067    0.4427547157    2.1382443905
C     5.1854729652   -0.5673540831    0.0459708907
F     6.4585595131   -1.0179243088    0.0929511860
C     4.3544392586   -0.8388516903   -1.0217227936
F     4.8529849052   -1.5855851173   -2.0489296913
C     3.0454421043   -0.3589634001   -1.0395735502
F     2.2554321289   -0.6437046528   -2.1034066677
N    -1.5353559256    1.1077013016    1.3733087778
C    -1.1903240681    0.8283086419    2.7317337990
H    -4.2739906311    0.6934586763   -1.0394631624
H    -2.9527063370    0.9740567803   -2.2927401066
H    -2.9141588211    1.8755966425   -0.7816119790
H    -3.2530503273   -0.1677246690    1.3299469948
H    -2.7919447422   -1.8621928692    0.7199550271
H    -4.1561460495   -0.9656448960    0.0207594205
H    -2.0618155003   -2.2342040539   -1.1897349358
H    -2.9543850422   -1.2063275576   -2.3736178875
H    -1.1374269724   -1.0553954840   -2.1987187862
H    -0.7862561941    1.3821477890   -2.2188265324
H    -1.6288002729   -0.1316500604    3.0964932442
H    -0.1023257822    0.7285697460    2.8984467983
H    -1.6091324091    1.6232919693    3.3819155693
34

O    -0.2108210921   -0.8540635705    1.1670937538
S    -0.7928131819    0.1180760339    0.2686020434
C    -2.2347674370   -0.6372367740   -0.1798085421
C    -2.7113754749   -0.4924826622   -1.5910357237
C    -3.3443655968   -0.0084442245    0.6784151793
C    -2.3201997280   -2.1318774223    0.1142731532
N    -0.5668331981    1.0071349144   -0.9735086560
I     0.6775518656   -0.0121738892   -0.8792189956
C     2.6531531811   -0.1780891716   -0.3147812188
C     3.3213031292   -1.3871905804   -0.4255464673
F     2.6533081532   -2.4825866222   -0.9175895452
C     4.6565818787   -1.4862048626   -0.0406667255
F     5.3292856216   -2.6583003998   -0.1403206736
C     5.3181610107   -0.3784005940    0.4526748657
F     6.6068015099   -0.4764905274    0.8234596252
C     4.6451020241    0.8211373687    0.5594261885
F     5.3041157722    1.9129166603    1.0477766991
C     3.3228552341    0.9296821356    0.1810489595
F     2.7101755142    2.1150994301    0.3026871383
N    -0.9511017799    1.3762552738    1.3219704628
C    -1.5577776432    2.6386871338    1.1929821968
H    -1.8686922789   -0.6681847572   -2.3165454865
H    -3.0798828602    0.5425782800   -1.7467056513
H    -3.5245590210   -1.2012895346   -1.7711724043
H    -3.8083574772    0.8365073204    0.1083036065
H    -2.9351520538    0.4651574790    1.5950210094
H    -4.0813002586   -0.7436818480    1.0189911127
H    -3.2010750771   -2.4246883392    0.6826788187
H    -2.2808814049   -2.7427806854   -0.7912295461
H    -1.3950449228   -2.3947510719    0.7005885839
H    -1.3111909628    1.6322721243   -1.3162219524
H    -2.0490694046    2.9638221264    2.1319103241
H    -0.7381038070    3.3600008488    0.9043853283
H    -2.2350296974    2.6395905018    0.3075830340
34

O    -2.0260853767    1.0187395811    2.2286298275
S    -1.0862517357    1.0927474499    0.3387613595
C    -1.6791445017   -0.3689236045    0.2646509707
C    -1.1234643459   -1.3495585918    1.3100792170
C    -1.3417071104   -1.0725822449   -1.0631787777
C    -3.1949996948   -0.5374170542    0.3572791219
N    -0.3758940101    2.1567089558    0.9852227569
I     0.4158387780    0.8555535674    0.4678997993
C     2.1642775536   -0.0725191012    0.0548004322
C     2.9262495041   -0.7078998089    1.0350146294
F     2.4735827446   -0.7027744055    2.3233752251
C     4.1243643761   -1.3390458822    0.7277634144
F     4.8693666458   -1.9581015110    1.6751295328
C     4.6007738113   -1.3582631350   -0.5587729812
F     5.7597799301   -1.9544223547   -0.9282628894
C     3.8673081398   -0.7383798361   -1.5438722372
F     4.2996797562   -0.7316526771   -2.8328266144
C     2.6780359745   -0.1103240177   -1.2467734814
F     1.9788585901    0.4872941375   -2.2195034027
N    -2.2823095322    1.8929023743   -0.3993169069
C    -2.2050654888    3.0064475536   -1.2838194370
H    -1.3107451200   -1.0222780704    2.3360397816
H    -0.0755852535   -1.6184324026    1.0951743126
H    -1.7166674137   -2.2860443592    1.1479488611
H    -1.7360858917   -0.4332258701   -1.8714206219
H    -1.8828678131   -2.0386145115   -1.0322262049
H    -0.2440175116   -1.1905282736   -1.1710401773
H    -3.5686352253   -0.2504601181    1.3503239155
H    -3.6573755741    0.0528478920   -0.4629815817
H    -3.4336566925   -1.6327654123    0.2464115918
H    -0.6376169920    3.0914170742    1.3237626553
H    -2.3027751446    3.9521713257   -0.7265471220
H    -1.2294485569    2.9871852398   -1.8495366573
H    -3.0477163792    2.8801982403   -2.0225853920
34

O    -0.8602777123   -0.1072137207    1.6762845516
S    -1.2799462080   -0.5273218155    0.4636929035
C    -1.5816870928    0.8608167171   -0.4428799748
C    -2.9267811775    0.7991968989   -1.1792395115
C    -0.4759961069    1.1740326881   -1.4386534691
C    -1.7078260183    2.1123750210    0.4081546366
N    -0.9597562551   -1.4291651249   -0.8539531827
I     0.3029813170   -1.5315020084    0.1651187390
C     2.1419725418   -0.6126967072    0.3889694214
C     2.4889395237    0.2276360989    1.4309681654
F     1.5702029467    0.4695089757    2.3697164059
C     3.7565488815    0.8113475442    1.5109195709
F     4.0874810219    1.6360573769    2.5395705700
C     4.7170324326    0.5631351471    0.5364971757
F     5.9506206512    1.1054714918    0.5757436752
C     4.3720893860   -0.2808696926   -0.5122717619
F     5.2900662422   -0.5459275842   -1.4852738380
C     3.1256952286   -0.8483152986   -0.5811544657
F     2.8662378788   -1.6649558544   -1.6425058842
N    -2.6417255402   -1.4331603050    0.8409693837
C    -2.6804978848   -2.8455557823    0.9711057544
H    -3.6934266090    0.8661598563   -0.3553144634
H    -3.0953934193   -0.1669693887   -1.6532739401
H    -3.0263874531    1.5784454346   -1.9408428669
H    -0.8487550616    2.0373399258   -2.0504183769
H    -0.2442618161    0.3320228755   -2.0921969414
H     0.4010885358    1.5702956915   -0.8829511404
H    -2.4268755913    1.8354980946    1.2112283707
H    -0.7443972826    2.4565231800    0.8218830228
H    -2.1857531071    2.8933205605   -0.1909081191
H    -1.6122248173   -1.5670700073   -1.6229038239
H    -3.2048308849   -3.3453218937    0.1062757969
H    -1.6591551304   -3.2995393276    1.0172988176
H    -3.2150006294   -3.1235990524    1.8903445005
34

O    -1.1286029816    0.6316834688    2.1028089523
S    -0.9615011215   -0.1792597920    0.7357688546
C    -2.3954327106   -0.9338940382    0.1340497434
C    -2.0089771748   -1.6601262093   -1.1367949247
C    -3.4754416943    0.0648246780   -0.2256530076
C    -3.0231206417   -1.9286446571    1.0671583414
N    -0.3783443570   -1.4781517982    1.4073027372
I     0.6573516726   -1.0185068846    0.2572534084
C     2.4235095978   -0.0255051181   -0.1350601763
C     2.9683401585    0.0518552549   -1.4169565439
F     2.3161258698   -0.5415563583   -2.4215345383
C     4.1551265717    0.7238674164   -1.6564699411
F     4.7064356804    0.8136098385   -2.8955080509
C     4.8188481331    1.3334318399   -0.6053558588
F     5.9953603745    2.0098624229   -0.7908679843
C     4.3002185822    1.2738240957    0.6860355139
F     4.9427537918    1.8703202009    1.7360501289
C     3.1063430309    0.5920901299    0.8980435133
F     2.6418890953    0.5644550920    2.1850676537
N    -0.7647325397    0.8571366668   -0.2334549278
C    -0.4256252050    2.2555170059   -0.1911632121
H    -2.8033654690   -2.3855137825   -1.4328775406
H    -1.0036870241   -2.1162784100   -1.0387400389
H    -1.8847231865   -0.8669565916   -1.9284482002
H    -4.3388018608   -0.5282307863   -0.6005988717
H    -3.1511738300    0.8254606724   -0.9630753398
H    -3.8195409775    0.5357269049    0.7247655988
H    -4.0683369637   -2.1025168896    0.8127585053
H    -2.5008471012   -2.9192509651    1.0645246506
H    -2.9277837276   -1.5589263439    2.1151688099
H    -0.8992985487   -2.0174205303    2.1032073498
H    -1.3779516220    2.8436760902   -0.0456693806
H     0.1535850912    2.4131157398    0.7558278441
H     0.1514008492    2.6002817154   -1.0675628185
34

O    -0.5815392137    1.3974986076    0.7126848698
S    -1.0556589365    0.6120502353   -0.3603532612
C    -1.7588551044   -0.7060886025    0.3105828166
C    -1.5873117447   -2.0631105900   -0.3806606829
C    -3.2799944878   -0.5020934343    0.3558488786
C    -1.3420877457   -0.9725663066    1.7443822622
N    -0.9489173889    0.1596551836   -1.8336375952
I     0.4849416018    0.6878076792   -1.3052817583
C     2.2769927979    0.1823472530   -0.3918659985
C     2.9760479927   -0.9890251756   -0.6282668710
F     2.4464728832   -1.8611210585   -1.5196732283
C     4.1686897278   -1.2635501623    0.0172951184
F     4.7809104919   -2.4408853054   -0.2818969190
C     4.7114362717   -0.3784970045    0.9255751371
F     5.8806285858   -0.6818645597    1.5375953913
C     4.0200576782    0.7873926759    1.1638700962
F     4.5782537460    1.6476387978    2.0675675869
C     2.8317136765    1.0684527159    0.5252129436
F     2.2374920845    2.2488727570    0.8385561109
N    -2.3026535511    1.8148112297   -0.8531777263
C    -1.8652055264    3.0108799934   -1.4392515421
H    -0.5496464968   -2.3978056908   -0.3165888488
H    -2.0424861908   -2.0747895241   -1.3743854761
H    -2.1886224747   -2.7900876999    0.2416650355
H    -3.7184257507   -0.8412426710    1.2936114073
H    -3.7681438923   -1.0150126219   -0.4882304668
H    -3.5246105194    0.5979141593    0.2824913859
H    -0.2501273155   -1.0371598005    1.8783788681
H    -1.7129735947   -0.0851693898    2.3237848282
H    -1.8878312111   -1.8641308546    2.1621675491
H    -1.6905928850   -0.3077290654   -2.3583989143
H    -2.3408486843    3.8735766411   -0.9062783122
H    -0.7678948641    3.1439459324   -1.4541733265
H    -2.2292098999    3.0390858650   -2.4891495705
34

O    -0.4001621306   -1.0461529493    0.4233098924
S    -0.8156001568    0.0577756427   -0.3233861327
C    -2.3658232689    0.3352431357    0.3162758350
C    -3.1576240063   -0.9620246887    0.3577105105
C    -3.2255601883    1.3139765263   -0.4526858032
C    -2.2482216358    0.8265191913    1.7171578407
N    -0.5445165634    1.5897209644   -0.6733741760
I     0.5992204547    1.1205135584    0.3773489892
C     2.5501313210    0.4417415261    0.4337460399
C     2.9510233402   -0.8492262959    0.1208423376
F     2.0117206573   -1.7224767208   -0.2445175201
C     4.2670130730   -1.2506463528    0.1748024374
F     4.6173839569   -2.5204153061   -0.1385232657
C     5.2684726715   -0.3574683368    0.5536559820
F     6.5448632240   -0.7880876064    0.5943813324
C     4.8826642036    0.9281705618    0.8669759035
F     5.8672146797    1.8060003519    1.2393666506
C     3.5603630543    1.3129214048    0.8075166941
F     3.2919082642    2.6093909740    1.1387906075
N    -0.7518763542   -0.4624357522   -1.8696942329
C    -1.0657846928   -1.7834177017   -2.2828724384
H    -3.9405901432   -0.9071220756    1.1583268642
H    -2.5480561256   -1.8496441841    0.5393328071
H    -3.7574946880   -1.0772181749   -0.5893030763
H    -4.3044195175    1.0850009918   -0.2486632019
H    -3.0102672577    1.2899897099   -1.5394533873
H    -3.0723526478    2.3634042740   -0.1134197116
H    -1.9653981924   -0.0469106585    2.3590812683
H    -1.4419533014    1.5717711449    1.8383038044
H    -3.1934852600    1.2916150093    2.0813293457
H    -1.1523967981    2.1193726063   -1.3050078154
H    -1.1192197800   -2.5164299011   -1.4597755671
H    -2.0220439434   -1.7358820438   -2.8640341759
H    -0.3091313243   -2.1875691414   -2.9935445786
34

O    -0.1084565744   -0.0498876125   -1.8119429350
S    -0.9410465360    0.6567533016   -0.5459823012
C    -1.8678060770   -0.6166288257    0.2835914791
C    -2.3298664093   -0.1198125780    1.5980349779
C    -0.9605934620   -1.8293856382    0.5320378542
C    -3.0147981644   -1.1150782108   -0.5213582516
N    -0.5392181873    1.8926798105    0.1916261911
I     0.4090108573    0.6072990298    0.5288895369
C     2.3897020817    0.0395950265    0.3406073749
C     3.0004730225   -0.6493661404    1.3652638197
F     2.2883241177   -0.9413517714    2.4781589508
C     4.3409256935   -1.0319073200    1.2343888283
F     4.9514083862   -1.7104406357    2.2372934818
C     5.0251698494   -0.7086104751    0.0750593767
F     6.3399605751   -1.0833870173   -0.0541977137
C     4.4212379456   -0.0130772814   -0.9682227373
F     5.0699791908    0.3104884923   -2.1033248901
C     3.1064209938    0.3525975943   -0.8197358847
F     2.4959037304    1.0314908028   -1.8233796358
N    -2.0143194199    1.2379463911   -1.3743243217
C    -2.7485582829    2.4432840347   -1.6129956245
H    -1.5488884449    0.0217861328    2.3655612469
H    -3.0295903683   -0.8938189149    2.0075583458
H    -2.9186422825    0.8223516941    1.5102508068
H    -1.5781913996   -2.7488431931    0.5478383899
H    -0.4250830412   -1.6409032345    1.4766216278
H    -0.2470197827   -1.8077975512   -0.3411984742
H    -3.9801471233   -0.6060783863   -0.2522629797
H    -2.8486084938   -0.8777278066   -1.6083492041
H    -3.1629245281   -2.2159740925   -0.4201832712
H    -0.7122884989    2.9216139317    0.2362460494
H    -2.5389266014    3.2090272903   -0.8254053593
H    -2.5009465218    2.8830811977   -2.6022982597
H    -3.8225963116    2.2300820351   -1.6039497852
34

O    -1.0657868385   -1.8678393364   -0.8040456772
S    -0.7953556180   -0.2612167299    0.3149686158
C    -2.3235146999    0.2427567393    0.5906254053
C    -2.8644981384    1.4482307434   -0.1415477544
C    -2.5255031586    0.5264132619    2.0886056423
C    -3.3166990280   -0.8969551325    0.3160147667
N    -0.6522217989   -1.2982002497    1.4094359875
I     0.6253380775   -0.3179284036    1.2059482336
C     2.5754864216   -0.2337694317    0.5097508430
C     3.1819760799   -1.3898997307    0.0228097141
F     2.4791305065   -2.5519623756    0.0148365851
C     4.4801359177   -1.3812148571   -0.4514434338
F     5.0501489639   -2.5276551247   -0.9227845073
C     5.2100243568   -0.2214946151   -0.4539436400
F     6.4884071350   -0.2192263752   -0.9223970175
C     4.6319584846    0.9306804538    0.0216656830
F     5.3726511002    2.0632383823    0.0089955796
C     3.3217074871    0.9293580651    0.5020386577
F     2.7519867420    2.0681741238    0.9715307355
N    -0.3573020101    0.4136227071   -0.8692609668
C    -0.8351579309    0.6397501230   -2.1756389141
H    -3.4204132557    2.1554841995    0.5424389839
H    -3.6632795334    1.1713789701   -0.8909883499
H    -2.0870137215    2.0687844753   -0.6055242419
H    -2.1320345402    1.5731006861    2.2357890606
H    -1.8276051283   -0.1224437356    2.6419303417
H    -3.5779578686    0.4468984306    2.3831591606
H    -3.0069265366   -1.4647837877   -0.5649914145
H    -3.2703089714   -1.5980733633    1.1860841513
H    -4.3446049690   -0.5215635896    0.2586966157
H    -1.3289920092   -1.9307769537    1.8403005600
H    -1.9041943550    0.4126785398   -2.3350265026
H    -0.5674243569    1.6956876516   -2.4243676662
H    -0.3021563590    0.0187660288   -2.9470541477
34

O    -0.1030708104   -0.1660276502    1.3760020733
S    -0.8372305632    0.3154587448    0.2488679141
C    -2.0635483265   -0.9275324345    0.1893086582
C    -2.5126717091   -1.3574104309    1.5670973063
C    -1.4160729647   -2.1270606518   -0.4722532630
C    -3.2705554962   -0.5455884337   -0.6248007417
N    -0.8937492371    0.5789301395   -1.2521088123
I     0.6137369871    0.1451734453   -0.9104906917
C     2.6048860550    0.2970908880   -0.4769570529
C     3.3629038334   -0.8617703319   -0.2600077391
F     2.7305819988   -2.0750863552   -0.3479726315
C     4.7096076012   -0.8012546301    0.0350068510
F     5.3445572853   -2.0056414604    0.2267119139
C     5.3598976135    0.3925076425    0.1277764589
F     6.6851739883    0.3781510293    0.4212495387
C     4.6472225189    1.5453476906   -0.0788949728
F     5.3341794014    2.7201585770    0.0227883719
C     3.2965152264    1.5033143759   -0.3755819499
F     2.6129622459    2.6532795429   -0.5757010579
N    -1.3444391489    1.7606904507    0.7786315084
C    -2.5176613331    2.4984180927    0.4307722747
H    -2.5512573719   -2.4520945549    1.6977949142
H    -3.4783360958   -0.8579704165    1.8009777069
H    -1.7246222496   -0.9903191328    2.2777731419
H    -1.7897101641   -3.0759916306   -0.0341807343
H    -0.3096268773   -2.1129028797   -0.3270687461
H    -1.5822252035   -2.0709850788   -1.5642261505
H    -3.9546618462   -1.4176639318   -0.5536469817
H    -3.8339118958    0.3082166016   -0.2460213751
H    -3.0245685577   -0.4857756197   -1.7089174986
H    -1.6405019760    1.0118519068   -1.7710876465
H    -3.3430843353    2.2158684731    1.1249467134
H    -2.3319947720    3.5768215656    0.6380275488
H    -2.7787239552    2.4297969341   -0.6373493075
34

O    -2.3796968460    1.7788542509    1.2779057026
S    -1.0849864483    0.1631613225    1.1174634695
C    -1.8165572882    0.0121540641   -0.2749980390
C    -1.3213002682   -1.2272254229   -1.0449227095
C    -1.5523154736    1.1736236811   -1.2184606791
C    -3.3410465717   -0.1947179586   -0.2904752493
N    -0.4458952546    0.8243092895    2.1889102459
I     0.3079567552    0.5289189816    0.7961584330
C     2.0567176342    0.5001357198   -0.2033410072
C     3.0458862782   -0.4551230073    0.0317222625
F     2.7777404785   -1.3967111111    0.9914420843
C     4.2340068817   -0.4793237746   -0.6434174180
F     5.1325387955   -1.4531427622   -0.3394603431
C     4.5057663918    0.4613184631   -1.6044292450
F     5.6560606956    0.4764724672   -2.2909669876
C     3.5633747578    1.4140731096   -1.8647542000
F     3.8259048462    2.3593299389   -2.8243041039
C     2.3679223061    1.4380443096   -1.1851232052
F     1.4813473225    2.3999769688   -1.4859752655
N    -2.0708069801   -0.9016304016    1.9890686274
C    -1.4257339239   -1.7895716429    2.9166419506
H    -1.4563790560   -2.1321318150   -0.4146490991
H    -0.2595564723   -1.1318932772   -1.3117504120
H    -1.9205478430   -1.2862256765   -1.9707341194
H    -1.2020328045    2.0394372940   -0.5922365785
H    -2.4623756409    1.5354441404   -1.7361309528
H    -0.7465228438    0.9429458976   -1.9481059313
H    -3.7533242702    0.3590328395    0.5846206546
H    -3.8072502613    0.2292103916   -1.1863956451
H    -3.6019277573   -1.2491413355   -0.1147704422
H    -0.6785835028    1.0380152464    3.1715366840
H    -2.1437962055   -2.2389481068    3.6269242764
H    -0.8144819736   -2.5626730919    2.3735008240
H    -0.6701051593   -1.1759990454    3.4795064926
34

O    -0.3340408802    0.2737317383    1.3724051714
S    -0.9684821963   -0.2361014634    0.2503350973
C    -2.4099805355    0.6998614073    0.1095150560
C    -3.6121625900   -0.2454499900    0.1741009057
C    -2.4691748619    1.5411700010   -1.1637556553
C    -2.6237804890    1.6878161430    1.2381829023
N    -0.9164159894   -0.6710370779   -1.2549988031
I     0.4345916808    0.1166883409   -0.8757530451
C     2.4250557423    0.1826315075   -0.4629086554
C     3.0756232738    1.4027990103   -0.2592842579
F     2.3460309505    2.5546441078   -0.3432200551
C     4.4196395874    1.4750733376    0.0210765898
F     4.9958701134    2.6879966259    0.2090024203
C     5.1862173080    0.3466250896    0.1139572412
F     6.5061812401    0.4689077735    0.3922479749
C     4.5734786987   -0.8684253097   -0.0815975294
F     5.3207569122   -1.9759154320    0.0085229678
C     3.2304675579   -0.9390785098   -0.3616591096
F     2.6909859180   -2.1614632607   -0.5425714850
N    -1.3056927919   -1.8078657389    0.7848753333
C    -0.6055793166   -2.9816355705    0.4390175045
H    -4.5572690964    0.3368857801    0.2998039424
H    -3.4835600853   -0.7759411931    1.1511654854
H    -3.6266322136   -0.9805217385   -0.6298762560
H    -1.6620588303    2.2789433002   -1.0902106762
H    -3.4415087700    2.0463068485   -1.1758013964
H    -2.4109745026    0.8897678256   -2.0597162247
H    -2.1979072094    1.2145338058    2.1410596371
H    -1.9556268454    2.5597970486    0.9841700792
H    -3.6720941067    1.9758230448    1.3253767490
H    -1.6722739935   -1.1027778387   -1.7698919773
H     0.4547975659   -2.9706609249    0.7555736303
H    -1.0900187492   -3.8267555237    0.9506415129
H    -0.6444621682   -3.1963734627   -0.6497849822
34

O    -0.3871553838    1.0658440590   -1.1759705544
S    -0.9663442969   -0.3247407675   -0.3601018488
C    -2.0831968784    0.1886985600    0.8759769797
C    -2.6355316639    1.5692461729    0.5059850812
C    -1.5218218565    0.2073584497    2.2571492195
C    -3.2472279072   -0.8067110181    0.8732528687
N    -0.4528023899   -1.6718063354   -0.4836083353
I     0.4140262008   -0.6042947173    0.4069402516
C     2.4388422966    0.0202874374    0.1949902177
C     2.7571330070    1.3128569126   -0.1508524418
F     1.7904243469    2.2141873837   -0.3635380566
C     4.0904655457    1.6261403561   -0.2647776902
F     4.4677109718    2.8859441280   -0.6034592390
C     5.1084513664    0.7152444720   -0.0508277789
F     6.4120235443    1.0818569660   -0.1779966801
C     4.7784814835   -0.5930348039    0.2994040549
F     5.7404732704   -1.5358097553    0.5230473876
C     3.4294605255   -0.9074876904    0.4140135348
F     3.1190638542   -2.1837651730    0.7554103732
N    -2.0659267902   -0.4982476830   -1.5409687757
C    -1.9193130732   -0.9303559661   -2.8909249306
H    -3.4296700954    1.8341559172    1.2351406813
H    -3.0666887760    1.4922670126   -0.5135099888
H    -1.7931145430    2.2708849907    0.5082287788
H    -2.1912374496    0.8362841010    2.8768002987
H    -0.4971031249    0.6127385497    2.3213639259
H    -1.5987391472   -0.8235049248    2.6916697025
H    -4.1348338127   -0.3302285969    0.4185603261
H    -3.0182707310   -1.6992164850    0.2527366281
H    -3.4434945583   -1.2229508162    1.8843010664
H    -0.4661035538   -2.5803985596   -0.9998445511
H    -2.1443088055   -2.0359203815   -2.8979771137
H    -2.6080033779   -0.4197025001   -3.5922353268
H    -0.8756673336   -0.7658197284   -3.2283778191
34

O    -0.8675701618   -0.6494414806    1.9361265898
S    -0.9440876842    0.0780492574    0.4786417186
C    -2.5526952744    0.3869535327   -0.0753884017
C    -3.2771809101   -0.8780916929   -0.5002193451
C    -2.4503037930    1.3652483225   -1.2174559832
C    -3.3983950615    1.0095152855    1.0248469114
N    -0.7411162257    1.5093028545    1.0405598879
I     0.3841409683    1.2430783510   -0.1036486924
C     2.3709557056    0.5565161109   -0.0749430954
C     3.0368208885    0.2966830730   -1.2698065042
F     2.4235715866    0.4795484245   -2.4544806480
C     4.3403506279   -0.1532471925   -1.2308152914
F     5.0373229980   -0.4224692881   -2.3698036671
C     5.0020332336   -0.3527397513   -0.0408126302
F     6.2853531837   -0.7956418991   -0.0014034298
C     4.3419132233   -0.0957082957    1.1211500168
F     4.9774241447   -0.2861823440    2.3102810383
C     3.0299255848    0.3581414223    1.1222181320
F     2.3538553715    0.6204119921    2.2734854221
N    -0.5420063734   -0.9640779495   -0.4089426696
C     0.1329329759   -2.2416467667   -0.2400895655
H    -3.7036778927   -0.7676134109   -1.5019583702
H    -4.0717372894   -1.1727919579    0.2203181088
H    -2.5180277824   -1.6808743477   -0.4922197461
H    -1.4516943693    1.3147021532   -1.7143255472
H    -2.5792610645    2.4134786129   -0.9024830461
H    -3.1925265789    1.1634057760   -2.0189981461
H    -3.3402047157    2.1062009335    1.0617874861
H    -4.4858059883    0.7596044540    0.9172287583
H    -3.0394134521    0.5493652821    1.9860916138
H    -1.3283430338    1.9610446692    1.7404320240
H     1.1992250681   -2.1450397968   -0.4693090320
H    -0.0736495778   -2.6480789185    0.7935299277
H    -0.3581282198   -2.9176054001   -0.9395936728
34

O    -0.5131539106   -0.1508671343    1.3875124454
S    -1.0391695499   -0.2172038406    0.0223818813
C    -2.3066229820    0.9735110402    0.1537000835
C    -3.0953154564    1.2241963148   -1.0748423338
C    -1.6583578587    2.2805273533    0.6070992351
C    -3.2537767887    0.4727003872    1.2333908081
N    -0.8776329160   -0.2783817649   -1.4328490496
I     0.5044385195    0.1226675361   -0.7299348712
C     2.4666993618   -0.0343263894   -0.1882464588
C     3.0038239956   -1.2353801727    0.2733338475
F     2.1990547180   -2.3181788921    0.3615210354
C     4.3371877670   -1.3405734301    0.6410185695
F     4.8480057716   -2.5311543941    1.0930737257
C     5.1886906624   -0.2588342428    0.5650058389
F     6.4888849258   -0.3039614856    0.9079999924
C     4.6670761108    0.9331838489    0.1098187044
F     5.4234991074    2.0671672821   -0.0045236726
C     3.3414778709    1.0543453693   -0.2602109015
F     2.8482930660    2.2356569767   -0.7052647471
N    -1.7125275135   -1.7863948345    0.2157873660
C    -1.2363811731   -2.9505312443   -0.4041875601
H    -3.3516466618    0.2549943924   -1.5792983770
H    -2.4597878456    1.7797251940   -1.8112781048
H    -3.9990596771    1.7629963160   -0.7969081998
H    -0.6964209080    2.4023041725    0.0891285539
H    -1.3844895363    2.1079587936    1.6886030436
H    -2.3419337273    3.1337103844    0.5420669317
H    -3.3903975487   -0.6258207560    1.0161809921
H    -2.8090984821    0.5723953247    2.2296319008
H    -4.2525162697    0.9286481738    1.1269903183
H    -1.5464241505   -0.5365369320   -2.1455209255
H    -1.9925177097   -3.2924547195   -1.1473293304
H    -0.3373490870   -2.6764974594   -0.9942671657
H    -1.0625519753   -3.7695915699    0.2999306917
34

O    -0.3885313272    0.4797597229   -1.1386785507
S    -0.9324107766   -0.2192598432   -0.1669884324
C    -2.3696146011    0.7846143246    0.2601015866
C    -2.8517591953    1.5557940006   -0.9462163448
C    -1.9910435677    1.7427883148    1.3619107008
C    -3.5061466694   -0.1146055534    0.6747208834
N    -0.7631696463   -0.6774339676    1.4479920864
I     0.5230143070    0.2269641161    1.0525559187
C     2.4856343269    0.0988724530    0.4406707585
C     3.5034201145    0.3579090834    1.3347610235
F     3.1974818707    0.6974390149    2.6192712784
C     4.8283591270    0.2864413559    0.9777951241
F     5.8031921387    0.5525702238    1.9010858536
C     5.2153849602   -0.0458465740   -0.2853819430
F     6.5273303986   -0.1090572327   -0.6107941270
C     4.2137942314   -0.3125882149   -1.2092653513
F     4.5867295265   -0.6439315081   -2.4678835869
C     2.8804197311   -0.2414978594   -0.8531260490
F     1.9296896458   -0.5020537972   -1.7573846579
N    -1.2486584187   -1.6626802683   -0.6098988056
C    -1.0197594166   -2.5588843822   -1.6672437191
H    -3.2872495651    0.8319349885   -1.6623392105
H    -1.9734369516    2.0322961807   -1.4674346447
H    -3.5310661793    2.3190641403   -0.5714662075
H    -1.0892055035    2.2886259556    1.0978474617
H    -1.8337676525    1.0741814375    2.2588946819
H    -2.8693869114    2.3394753933    1.5846879482
H    -3.5996212959   -0.9039807320   -0.1007663906
H    -3.4428601265   -0.5138822198    1.6844807863
H    -4.4224305153    0.5064957738    0.6151659489
H    -1.5137561560   -1.1025345325    1.9912327528
H    -0.3026955724   -2.2487413883   -2.4316129684
H    -0.7502434850   -3.5499022007   -1.2036434412
H    -2.0076360703   -2.7683460712   -2.1530511379
34

O    -0.6146007180    0.1086545214   -1.5697351694
S    -1.0495804548    0.4875956178   -0.3128676116
C    -2.0314133167   -0.7855547667    0.1848890036
C    -1.6352021694   -1.4182432890    1.5123881102
C    -2.1833524704   -1.9410686493   -0.7852313519
C    -3.4559233189   -0.2480296642    0.3665132821
N    -0.9150483012    1.1795775890    1.0586920977
I     0.5054212809    1.0073828697    0.3338222802
C     2.3765797615    0.2797710896    0.0982570648
C     3.5049793720    0.8460873365    0.6871759892
F     3.3162040710    1.9470366240    1.4582873583
C     4.7660207748    0.3467370570    0.5218282342
F     5.8112077713    0.9638304710    1.1346008778
C     4.9739913940   -0.7628310323   -0.2525495291
F     6.2318530083   -1.2514945269   -0.4106882513
C     3.9017124176   -1.3545403481   -0.8511259556
F     4.1259446144   -2.4560785294   -1.6171094179
C     2.6311981678   -0.8501566648   -0.6836080551
F     1.5987592936   -1.4782491922   -1.3023835421
N    -2.1216886044    1.8387162685   -0.8936160207
C    -1.5029172897    3.1160461903   -0.9964860678
H    -0.6848350763   -0.8842113018    1.8052498102
H    -1.3980197906   -2.4781723022    1.4442157745
H    -2.3515577316   -1.1594116688    2.3227868080
H    -2.6050519943   -2.8034327030   -0.2591577470
H    -1.1516981125   -2.1957895756   -1.1445184946
H    -2.7411572933   -1.6489982605   -1.7013490200
H    -4.0454812050   -0.9073933959    1.0380330086
H    -3.4168453217    0.7680927515    0.7995026708
H    -3.9515607357   -0.1404948235   -0.6190798283
H    -1.6586813927    1.4099954367    1.7116008997
H    -1.9001513720    3.7437717915   -0.1507695317
H    -0.4051129520    3.1071956158   -1.0215282440
H    -1.9239928722    3.6136596203   -1.9060393572
34

O    -2.2589154243    0.7041386962   -1.6850078106
S    -1.0455429554    0.9797495008    0.1403134614
C    -1.7824082375   -0.4431539178    0.4151219726
C    -1.3847389221   -0.9560237527    1.8122587204
C    -1.4448903799   -1.5873407125   -0.5293772817
C    -3.3196127415   -0.4684028327    0.4938636720
N    -0.4100658298    1.8513649702   -0.7879301310
I     0.3526838720    0.5391324759   -0.2363521010
C     2.1909930706   -0.2485575527    0.0196500141
C     3.3475131989    0.4562668800   -0.3415299654
F     3.1912152767    1.7004458904   -0.8754270077
C     4.6047592163   -0.0566928461   -0.1776569188
F     5.6629562378    0.7274116278   -0.5686908364
C     4.7987341881   -1.2952579260    0.3520348072
F     6.0645012856   -1.7452807426    0.4881069362
C     3.6917934418   -2.0249631405    0.7217026949
F     3.8699033260   -3.2500107288    1.2462694645
C     2.4193265438   -1.5069746971    0.5563597679
F     1.3905595541   -2.2906825542    0.9458199739
N    -2.1142146587    1.9283906221    0.8185409307
C    -2.0311515331    3.3172202110    1.1574398279
H    -1.3726015091   -2.0605206490    1.8589454889
H    -2.1061782837   -0.5800201297    2.5812056065
H    -0.3715839684   -0.5699183345    2.0488753319
H    -0.4084597528   -1.5329846144   -0.9168656468
H    -2.1912684441   -1.5491604805   -1.3521467447
H    -1.6034424305   -2.5341105461   -0.0049648033
H    -3.7133300304    0.1810477525   -0.3206944168
H    -3.7133917809   -1.4856663942    0.3106961846
H    -3.6847972870   -0.0415620729    1.4504336119
H    -0.6310421228    2.7480554581   -1.2356431484
H    -2.3746168613    3.9451503754    0.3107437789
H    -2.6425173283    3.5382232666    2.0778226852
H    -0.9801687598    3.6106867790    1.3942646980
34

O    -1.7630755901    0.9560781121   -2.0322744846
S    -0.9568536282    0.1154578924   -0.5629612207
C    -2.4081792831   -0.5147883296    0.2359939069
C    -3.3137879372   -1.2042889595   -0.7868812680
C    -3.2451887131    0.5613039732    0.8454433084
C    -1.9200892448   -1.5179531574    1.2063055038
N    -0.7068296075   -1.0432759523   -1.4825443029
I     0.5284152627   -0.4915912747   -0.6239824891
C     2.4738845825   -0.2890067995   -0.0803218931
C     3.2611653805   -1.4151328802    0.1944067180
F     2.6682057381   -2.6505255699    0.0818700939
C     4.5850234032   -1.3017368317    0.5654637814
F     5.3396086693   -2.4154412746    0.8303318620
C     5.1950378418   -0.0826325938    0.6835879683
F     6.4873661995    0.0667657703    1.0440648794
C     4.4430613518    1.0424642563    0.4189403653
F     5.0282568932    2.2694840431    0.5296604633
C     3.1230592728    0.9253272414    0.0491478629
F     2.4497783184    2.0760891438   -0.1942965388
N    -0.7874944210    1.3631738424    0.0943251997
C    -0.6721041799    2.7708516121   -0.0861433744
H    -3.2154436111   -0.7167715430   -1.7733337879
H    -4.3588585854   -1.1442872286   -0.4782613516
H    -3.0172429085   -2.2865564823   -0.8129537106
H    -3.3570406437    1.3550301790    0.0801527798
H    -2.8809938431    0.9464935064    1.8142874241
H    -4.2599692345    0.1440795511    0.9958444834
H    -1.3072847128   -1.0052237511    1.9792654514
H    -2.8064856529   -1.9323698282    1.7610405684
H    -1.4153445959   -2.3367440701    0.6912239790
H    -1.3508802652   -1.6711442471   -1.9636493921
H    -1.6588606834    3.2777972221    0.0345714316
H     0.0782439783    3.1974859238    0.6006580591
H    -0.2590994537    2.9515883923   -1.1176117659
34

O    -2.2770080566   -1.4124325514   -1.8325405121
S    -1.1665445566    0.1668176055   -0.9958868623
C    -1.7705025673   -0.4303911030    0.3441910744
C    -1.2300497293   -1.8123223782    0.7032144666
C    -3.2886736393   -0.5485327840    0.5127432346
C    -1.3702745438    0.4249075353    1.5617324114
N    -0.5959867835    0.1914129853   -2.2703835964
I     0.2699267864   -0.0995139405   -0.9444926977
C     2.1403324604   -0.2366456687   -0.1914843917
C     2.7475681305   -1.4491071701    0.1364591718
F     2.0853950977   -2.6212625504   -0.0428865962
C     4.0290017128   -1.5111378431    0.6500840187
F     4.6021237373   -2.7024774551    0.9629637003
C     4.7637577057   -0.3770856857    0.8609995842
F     6.0226116180   -0.3632160425    1.3602501154
C     4.1924681664    0.8301329017    0.5477087498
F     4.8747310638    1.9960421324    0.7355049253
C     2.9195148945    0.9043529034    0.0365847535
F     2.3819615841    2.1294450760   -0.2645609677
N    -2.3858857155    1.3091988564   -1.2324042320
C    -2.0315599442    2.6155626774   -1.6417475939
H    -1.2920725346   -2.4402434826   -0.1993811578
H    -1.8764438629   -2.2523758411    1.4943915606
H    -0.1860810965   -1.6983919144    1.0889575481
H    -3.6828546524   -1.3746592999   -0.1309531331
H    -3.7356383801    0.3978889287    0.0972334594
H    -3.5514390469   -0.6461837292    1.5684267282
H    -0.2604901791    0.4868257344    1.6121429205
H    -1.8767089844    1.4022923708    1.4760259390
H    -1.7812756300   -0.1055035666    2.4455540180
H    -0.9028353691    0.3696753681   -3.2364759445
H    -2.0024611950    2.6411972046   -2.7543165684
H    -2.7545287609    3.3235821724   -1.1959768534
H    -1.0100777149    2.8921489716   -1.2616770267
34

O    -1.2883557081    1.2528448105    2.2541921139
S    -0.9800958037    0.0897812843    0.8470544219
C    -2.4891936779   -0.3614668548    0.2672850192
C    -2.7239649296    0.0865224749   -1.1611894369
C    -3.5958025455    0.2330765277    1.1066874266
C    -2.7052457333   -1.8808506727    0.2246550918
N    -0.7727823853   -0.9903802276    1.8986468315
I     0.4743210077   -0.8444690108    0.8848910332
C     2.3991947174   -0.2865200937    0.5220946074
C     2.9841761589    0.8869804144    0.9789097905
F     2.2096676826    1.7228100300    1.7238367796
C     4.2810482979    1.2351510525    0.7187739611
F     4.7704153061    2.3967881203    1.2025535107
C     5.0741810799    0.4169854522   -0.0227502938
F     6.3597888947    0.7474242449   -0.2889441848
C     4.5472731590   -0.7593724132   -0.5016376972
F     5.3055276871   -1.5902042389   -1.2380321026
C     3.2430064678   -1.1055499315   -0.2377672642
F     2.7404375076   -2.2760581970   -0.7219159603
N    -0.5447838306    1.1691234112    0.0297352821
C     0.0429952256    1.4701259136   -1.2222524881
H    -2.5028064251    1.1675807238   -1.2747064829
H    -3.8035573959   -0.0148019409   -1.4072451591
H    -2.2010109425   -0.5420036316   -1.9107269049
H    -3.2798850536    1.2060853243    1.5287082195
H    -3.8557016850   -0.4721771181    1.9183567762
H    -4.5069403648    0.3238455653    0.4813658297
H    -3.0219049454   -2.1746933460    1.2348426580
H    -3.5047211647   -2.1204955578   -0.5019080043
H    -1.7273428440   -2.3586649895   -0.0672653839
H    -1.4472520351   -1.3909879923    2.5432674885
H    -0.1342106760    0.6768392324   -1.9612207413
H    -0.4697945416    2.4085273743   -1.5687831640
H     1.1233191490    1.6782046556   -1.0997661352
34

O    -1.3854027987   -1.9042935371   -0.4949225187
S    -0.9507826567   -0.1255306304   -0.4877677560
C    -2.4989502430    0.2431676090   -0.1600718200
C    -3.4424488544   -0.3255254030   -1.2325236797
C    -2.7791314125    1.7405328751   -0.1757517308
C    -3.0842697620   -0.2694371045    1.1575343609
N    -0.8393653035    0.5557107925   -1.6865247488
I     0.4445445836   -0.3533034921   -1.2436720133
C     2.4065904617   -0.1134305373   -0.5981739163
C     3.2753722668   -1.2035784721   -0.7295244336
F     2.8154356480   -2.3793222904   -1.2712514400
C     4.5977087021   -1.1215416193   -0.3222323358
F     5.3792848587   -2.2112472057   -0.4783844352
C     5.0428881645    0.0593024194    0.2170281559
F     6.3475937843    0.1058540568    0.6068857908
C     4.1946396828    1.1538105011    0.3557753563
F     4.7001557350    2.2853932381    0.8951399326
C     2.8813669682    1.0564379692   -0.0542663299
F     2.0528562069    2.1223661900    0.0801862851
N    -0.4134572744    0.1467232257    1.0863316059
C     0.3112075031   -0.9169579148    1.7280074358
H    -3.1917860508    0.0800232813   -2.2180833817
H    -4.4525380135   -0.1112776697   -0.8713242412
H    -3.3204960823   -1.4284752607   -1.2156945467
H    -3.7153470516    1.9479855299    0.3966855705
H    -3.0126779079    2.0813629627   -1.2188249826
H    -1.9220128059    2.3217134476    0.1713757217
H    -4.1562304497   -0.0213596504    1.0983377695
H    -2.9075314999   -1.3428386450    1.3081444502
H    -2.6435725689    0.3560354114    1.9617314339
H    -1.2652322054    1.2708126307   -2.3184440136
H     1.4041339159   -0.6955154538    1.8356665373
H    -0.1373396963   -1.1292608976    2.7349369526
H     0.2647937238   -1.8743362427    1.1647838354
34

O    -0.1969393194    0.7275383472   -1.1795328856
S    -0.7883363366    0.4525024891    0.1053400636
C    -2.1190636158   -0.5274598002   -0.3310424685
C    -2.8117265701   -1.2882283926    0.7384870052
C    -1.6298583746   -1.5702244043   -1.3429024220
C    -3.1197655201    0.3401084542   -1.0507776737
N    -0.6341753602    0.0772314146    1.5649127960
I     0.7272290587   -0.2627672255    0.7976841331
C     2.6639313698   -0.2162994593    0.2425549924
C     3.5310111046    0.7919166088    0.6827588081
F     3.0781867504    1.7791141272    1.5086021423
C     4.8572196960    0.8264175653    0.3046247363
F     5.7120242119    1.7918063402    0.7186773419
C     5.3579688072   -0.1514380574   -0.5292187929
F     6.6499266624   -0.1776405722   -0.9392933249
C     4.5357470512   -1.1612623930   -0.9841501713
F     4.9644498825   -2.1506114006   -1.8041695356
C     3.2101948261   -1.1907259226   -0.6027048826
F     2.3737936020   -2.1718540192   -1.0333180428
N    -1.2745583057    2.0358247757    0.4604640901
C    -2.3110506535    2.4549145699    1.3159797192
H    -3.3985736370   -2.0975146294    0.2314063013
H    -3.5338988304   -0.7203383446    1.3407948017
H    -2.0435359478   -1.7369943857    1.4002648592
H    -0.5851082802   -1.8405734301   -1.0706163645
H    -1.6474055052   -1.2015140057   -2.3758749962
H    -2.2304797173   -2.5027120113   -1.2853786945
H    -3.3488218784   -0.0257139988   -2.0844814777
H    -4.0771441460    0.3920664489   -0.4784391224
H    -2.7867200375    1.3962160349   -1.1764047146
H    -1.3914005756    0.0125296796    2.2264051437
H    -2.4716186523    3.5445473194    1.1050218344
H    -3.2869932652    1.9722002745    1.1516489983
H    -1.9745091200    2.3989381790    2.3726775646
34

O    -2.0634560585    1.8064570427   -1.1429383755
S    -1.1258563995    0.7617894411   -0.7476495504
C    -2.3055500984   -0.4789068401   -0.1305655986
C    -3.5667219162    0.1305690855    0.3374294937
C    -1.6438322067   -1.1481820345    1.0808240175
C    -2.5976121426   -1.4708303213   -1.2113027573
N    -0.5328689218    0.5012766123   -2.1114051342
I     0.1605395824   -0.3861142397   -0.9158324003
C     2.0970187187   -0.4952501655   -0.2094383240
C     3.1244983673   -0.8278925419   -1.0999327898
F     2.8332152367   -1.0706514120   -2.3999419212
C     4.4405436516   -0.9153283238   -0.6808373332
F     5.4090752602   -1.2437983751   -1.5889211893
C     4.7641134262   -0.6714625359    0.6444345117
F     6.0511503220   -0.7597597837    1.0414400101
C     3.7751796246   -0.3440207541    1.5350413322
F     4.0474510193   -0.0976165980    2.8400232792
C     2.4635572433   -0.2583333254    1.1106599569
F     1.4852621555    0.0661615059    1.9944270849
N    -0.4281379580    1.5123690367    0.5352990031
C    -0.3756861091    2.8581705093    0.9308118820
H    -3.9340505600   -0.3718531728    1.2280489206
H    -4.3329911232    0.0877863467   -0.4771773219
H    -3.4566845894    1.2329980135    0.5547198057
H    -2.4735710621   -1.6487066746    1.6313701868
H    -1.2048193216   -0.3120296896    1.6832072735
H    -0.8914118409   -1.8810933828    0.7560629249
H    -2.3543217182   -1.0118777752   -2.1796348095
H    -2.0142283440   -2.4104754925   -1.0068981647
H    -3.6547896862   -1.7502142191   -1.1832484007
H    -0.4968621135    0.8703629375   -3.0821006298
H    -0.8291144967    3.5438570976    0.1802303940
H    -0.9946066737    2.9626812935    1.8659778833
H     0.6255686879    3.2199187279    1.2136869431
34

O    -0.5097849965    0.5039961934    1.2881585360
S    -1.0116893053    0.1900047511   -0.0777394399
C    -2.3041009903   -0.8377844095    0.3398136795
C    -3.3462524414    0.0330939554    1.0569679737
C    -1.8035554886   -1.8594762087    1.3680729866
C    -3.0048053265   -1.5774551630   -0.7338893414
N    -0.9170666933   -0.0279768612   -1.4789745808
I     0.4964568913   -0.1724325269   -0.7325800061
C     2.4790918827   -0.0399308614   -0.2957159579
C     2.9279153347   -0.0924403071    1.0269798040
F     2.0044803619   -0.2340873927    2.0087797642
C     4.2716445923   -0.0038523700    1.3414200544
F     4.6813001633   -0.0585347302    2.6488070488
C     5.2040896416    0.1389829069    0.3529201448
F     6.5493431091    0.2311036736    0.6168453097
C     4.8048138618    0.1944528073   -0.9536552429
F     5.6933951378    0.3363194466   -1.9807559252
C     3.4482424259    0.1051188037   -1.2726151943
F     3.0280876160    0.1586196423   -2.5753493309
N    -1.7147564888    1.8698456287   -0.2065547109
C    -1.0586299896    2.8162322044   -1.0098757744
H    -3.6842415333    0.7796781063    0.2974129915
H    -2.9304215908    0.5286251903    1.9500859976
H    -4.2260341644   -0.5981852412    1.2686887980
H    -2.2461593151   -1.6819852591    2.3623850346
H    -0.6909822226   -1.8166024685    1.4482909441
H    -2.0233924389   -2.9015741348    1.0389239788
H    -3.0717413425   -2.6830821037   -0.5209955573
H    -4.0843048096   -1.2725999355   -0.8420260549
H    -2.5722677708   -1.5210983753   -1.7430667877
H    -1.5489255190    0.1672886312   -2.2561926842
H    -1.6809833050    2.9605255127   -1.9390376806
H    -1.1143910885    3.8054361343   -0.4753771722
H    -0.0443739891    2.5597746372   -1.3201513290
34

O    -1.6471275091    1.7334462404    1.7914762497
S    -0.9346542954    0.4047974944    0.7246000171
C    -2.4168941975   -0.5255715847    0.3593694866
C    -3.3317806721    0.2592943013   -0.5661404133
C    -3.2270002365   -0.7718743086    1.6144944429
C    -1.9188115597   -1.7667934895   -0.2753323317
N    -0.5888734460   -0.3497352302    2.0079948902
I     0.5797451735   -0.1578695178    0.9328080416
C     2.4643030167   -0.2243539840    0.1941961646
C     3.3011631966    0.8747806549    0.1842543334
F     2.8434810638    2.0296664238    0.6845245957
C     4.5866694450    0.8401941657   -0.3165487945
F     5.4015197754    1.9211425781   -0.3232113421
C     5.0799264908   -0.3388386667   -0.8372144103
F     6.3379278183   -0.4268256724   -1.3425679207
C     4.2723984718   -1.4678750038   -0.8469017148
F     4.7828645706   -2.6251859665   -1.3680301905
C     2.9899749756   -1.4075248241   -0.3400200009
F     2.2086489201   -2.5127213001   -0.3529798388
N    -0.8266037107    1.2327489853   -0.3839029968
C    -0.6844699979    2.5838372707   -0.7992599607
H    -2.7826867104    0.4673873782   -1.5117200613
H    -3.5669074059    1.2319077253   -0.0871941000
H    -4.2290186882   -0.3464188576   -0.6787481904
H    -2.8585944176   -1.7386533022    2.0422122478
H    -4.2796268463   -0.9002129436    1.3730806112
H    -3.0580286980    0.0714696422    2.2969675064
H    -0.9562290907   -2.0780301094    0.1743871570
H    -2.6123898029   -2.6248185635   -0.2305599004
H    -1.6749620438   -1.5212754011   -1.3490809202
H    -1.1805604696   -0.7040601373    2.7550671101
H    -1.5186960697    2.7701818943   -1.5355734825
H    -0.8396815658    3.3127624989   -0.0014664751
H     0.2849745750    2.7550210953   -1.3038846254
34

O    -1.8357529640   -1.5632126331   -1.6587693691
S    -0.8547956347   -0.2237040699   -0.4257524610
C    -2.1995487213    0.6838340163    0.0137422737
C    -2.7359499931    0.4746318161    1.4132882357
C    -3.4041080475    0.5128669739   -0.9184135795
C    -1.8203130960    2.1691126823   -0.0740348548
N    -0.6364533305    0.4371304512   -1.7999029160
I     0.6490108371    0.0124118570   -0.9214333892
C     2.6121416092   -0.1399658769   -0.4239499867
C     3.3154332638    0.9613014460    0.0719165429
F     2.6808962822    2.1500229836    0.2242614627
C     4.6395497322    0.8982924819    0.4183957279
F     5.3210072517    1.9666010141    0.8991975784
C     5.3377456665   -0.2867609262    0.2845575511
F     6.6547493935   -0.3455471694    0.6302417517
C     4.6698498726   -1.3999499083   -0.2048604786
F     5.3619179726   -2.5585210323   -0.3331007659
C     3.3235702515   -1.3209552765   -0.5530388355
F     2.7506246567   -2.4447386265   -1.0192838907
N    -0.8019868135   -1.2684495449    0.4921500087
C    -1.5921273232   -2.2575352192    1.1146506071
H    -2.0024635792    0.0001910359    2.0745332241
H    -3.7351057529   -0.0521127246    1.4112180471
H    -2.9870581627    1.4520044327    1.9210189581
H    -3.1022109985    0.1460457146   -1.9095708132
H    -3.9455988407    1.4809850454   -1.0048584938
H    -4.1609363556   -0.1723435372   -0.4372528493
H    -0.8332668543    2.2379410267    0.4702850580
H    -1.6269047260    2.4956007004   -1.0993587971
H    -2.5439863205    2.8037047386    0.4631236196
H    -1.2213995457    0.8883419037   -2.4987268448
H    -2.6735303402   -2.1662018299    1.0073782206
H    -1.3481884003   -3.2936594486    0.7361631393
H    -1.2548105717   -2.2773628235    2.1894381046
34

O    -2.3872890472    1.5916371346   -1.0143312216
S    -1.2475278378    0.9926373959    0.1844945848
C    -1.4575692415   -0.5212101340   -0.5385549068
C    -2.9151430130   -1.0075550079   -0.6046739817
C    -0.7434722185   -1.6807742119    0.1687025577
C    -0.9496706724   -0.4839708805   -1.9463028908
N    -0.5155071616    2.1883175373   -0.0432364605
I     0.0544642769    0.8982314467    0.8227905631
C     1.9823608398    0.0591682233    0.4594165385
C     2.6263020039    0.2546595037   -0.7455063462
F     2.0450675488    0.9875372648   -1.7274857759
C     3.8673396111   -0.3028339446   -0.9404360056
F     4.4960651398   -0.1090755910   -2.1235480309
C     4.4280338287   -1.0419968367    0.0810832605
F     5.6519384384   -1.5827500820   -0.1317865103
C     3.8204293251   -1.2576628923    1.2891182899
F     4.3564605713   -1.9781136513    2.2971575260
C     2.5658533573   -0.6936333179    1.4851117134
F     1.8890528679   -0.8608688712    2.6645152569
N    -2.5754528046    1.1222903728    1.4440735579
C    -2.6970436573    2.5158157349    1.8210606575
H    -3.1677105427   -1.3878310919   -1.6150512695
H    -3.5181019306   -0.0671822429   -0.4746284485
H    -3.1633222103   -1.7146990299    0.2044622749
H    -0.9749174118   -1.7196086645    1.2427120209
H     0.3313032389   -1.6932173967   -0.0679337829
H    -1.1437293291   -2.6208345890   -0.2808670700
H    -1.5639696121   -1.1255360842   -2.6382014751
H    -0.9243639708    0.5642639995   -2.3005921841
H     0.0927641094   -0.8629167080   -1.9449955225
H    -0.1816296279    2.9911887646   -0.6346926093
H    -3.4327445030    2.6105291843    2.6182126999
H    -1.6739109755    2.8858270645    2.1005470753
H    -2.9743592739    3.0501677990    0.8893660903
34

O    -1.6444720030   -1.8909289837    1.4685372114
S    -0.8629018664   -0.3186585009    0.4400467277
C    -2.2236399651    0.6931155324    0.4919085801
C    -2.9972267151    0.7928985357   -0.8250054121
C    -1.7751919031    2.1071360111    0.8205804825
C    -3.2592813969    0.3020744920    1.5243424177
N    -0.3440437317    0.0455141626    1.8547749519
I     0.7314462662   -0.2303975075    0.6884430647
C     2.5459513664   -0.1753317118   -0.2253055722
C     3.0081338882    0.9970830083   -0.8283380866
F     2.2615180016    2.1385736465   -0.8244738579
C     4.2378425598    1.0590962172   -1.4555081129
F     4.6518092155    2.1940762997   -2.0227622986
C     5.0291872025   -0.0720793828   -1.4847642183
F     6.2371373177    0.0325086974   -2.1147937775
C     4.6130027771   -1.2576506138   -0.9002423882
F     5.4264593124   -2.3286981583   -0.9596445560
C     3.3717908859   -1.3052539825   -0.2719990909
F     2.9999089241   -2.4803373814    0.2873024046
N    -1.0259677172   -1.0538581610   -0.7023761272
C    -1.2145801783   -2.2940256596   -1.3487840891
H    -2.6024928093    1.6127139330   -1.4698110819
H    -4.0714659691    1.0116229057   -0.6616376042
H    -2.8861460686   -0.1927060485   -1.3461056948
H    -0.8776660562    2.3833169937    0.2424104065
H    -1.5240961313    2.1971428394    1.8850814104
H    -2.5609555244    2.8618295193    0.5254745483
H    -3.8727734089   -0.5456073284    1.1941229105
H    -2.8211286068    0.0737725869    2.5122833252
H    -3.9301450253    1.1838361025    1.6212549210
H    -0.7827774882    0.2860347629    2.7414638996
H    -1.2922743559   -2.0346484184   -2.4393939972
H    -0.3869743347   -3.0069236755   -1.1919461489
H    -2.1579854488   -2.7852408886   -0.9988244772
34

O    -0.1933293194   -0.3955997825    1.3748360872
S    -0.7747966647    0.3802435696    0.3556877971
C    -2.1744098663   -0.5501878858   -0.0463046990
C    -3.3484263420    0.2483978420   -0.5213543773
C    -2.6809165478   -1.4114576578    1.1063448191
C    -1.7875926495   -1.5049022436   -1.1583189964
N    -0.6643562317    1.0327955484   -1.0425096750
I     0.7103072405    0.2549090385   -0.7615345120
C     2.6434280872   -0.1230954602   -0.3539226055
C     3.2460207939    0.2999548912    0.8379751444
F     2.5135791302    0.9860423207    1.7523275614
C     4.5719637871    0.0388374776    1.1138668060
F     5.1006541252    0.4693153501    2.2763645649
C     5.3606419563   -0.6543115973    0.2191025764
F     6.6637191772   -0.9129250050    0.4862939119
C     4.7906589508   -1.0818575621   -0.9622178078
F     5.5465230942   -1.7741261721   -1.8748241663
C     3.4652676582   -0.8248685598   -1.2459080219
F     2.9161248207   -1.2505869865   -2.4112179279
N    -1.0979193449    1.7883417606    1.1577217579
C    -2.0279409885    2.8104364872    0.8293894529
H    -3.7622659206    0.9104383588    0.2880931497
H    -4.1628108025   -0.4925765097   -0.6872287393
H    -3.2243106365    0.7610759139   -1.4787815809
H    -1.8649005890   -1.4681624174    1.8770160675
H    -2.9792885780   -2.4164571762    0.7751789093
H    -3.5197038651   -0.8702693582    1.6285529137
H    -2.6911067963   -2.1124179363   -1.3688009977
H    -1.5137001276   -0.9645894766   -2.0873110294
H    -0.9438640475   -2.1733484268   -0.8793829083
H    -1.3591469526    1.5897510052   -1.5008171797
H    -1.5119894743    3.7934989929    0.9672669172
H    -2.3752570152    2.8110055923   -0.2204832882
H    -2.8708558083    2.8066959381    1.5549001694
34

O    -1.8040828705    1.9325715303    1.1955927610
S    -0.9750974178    0.3562173247    0.5524528623
C    -2.3489692211   -0.6673960090    0.3584664464
C    -2.9067926407   -1.2770895958    1.5940258503
C    -2.0111038685   -1.6817464828   -0.6588858962
C    -3.4722373486    0.1944392174   -0.2373410165
N    -0.6140358448    0.0929271579    1.9663686752
I     0.5750811696    0.0399361178    0.8924318552
C     2.4949455261   -0.0163148306    0.2429401129
C     3.1742539406    1.1577379704   -0.1055694222
F     2.4929368496    2.3339776993    0.0100744003
C     4.4840221405    1.1285094023   -0.5496417284
F     5.0507245064    2.3211817741   -0.8615432978
C     5.1515550613   -0.0756693482   -0.6577628255
F     6.4368700981   -0.0427392833   -1.0996882915
C     4.5064225197   -1.2518156767   -0.3207055628
F     5.1804671288   -2.4253776073   -0.4340828955
C     3.1915361881   -1.2119572163    0.1240519956
F     2.5421853065   -2.3532752991    0.4590798616
N    -0.8787002563    0.9578807354   -0.7652829885
C    -0.7147007585    2.1781089306   -1.4797056913
H    -3.1774392128   -0.5177724361    2.3589961529
H    -2.2554402351   -2.0614266396    1.9928226471
H    -3.8683574200   -1.7524349689    1.3137748241
H    -1.2520587444   -1.3810095787   -1.4059978724
H    -2.9307641983   -2.0803873539   -1.1521664858
H    -1.5667779446   -2.5664706230   -0.1175984070
H    -3.4010922909    0.2103129923   -1.3438348770
H    -4.4481968880   -0.2459951788    0.0371833220
H    -3.4194686413    1.1886807680    0.2321574688
H    -1.2123486996   -0.1449312866    2.7572603226
H    -1.5283906460    2.3536400795   -2.2173256874
H    -0.7934752107    3.0078783035   -0.7364109755
H     0.2985298932    2.2998092175   -1.9441357851
34

O    -0.4752891064   -1.3260964155    0.8556739092
S    -1.2383592129   -0.6704404354   -0.0943628252
C    -1.5957804918    0.8255503774    0.4948836863
C    -1.0392434597    2.0437183380   -0.2505329847
C    -1.1683590412    1.0431964397    1.9347760677
C    -3.1157217026    1.0430662632    0.4585060775
N    -1.3074073792   -0.2906693816   -1.6772291660
I     0.1870401055   -0.8593946099   -1.3931783438
C     2.1355483532   -0.3594388664   -0.9087361693
C     2.8881683350    0.5841681957   -1.5921986103
F     2.3237416744    1.2242227793   -2.6429731846
C     4.1905322075    0.8849837780   -1.2297254801
F     4.9063138962    1.8172440529   -1.9201360941
C     4.7812066078    0.2374576777   -0.1559424549
F     6.0563998222    0.5583044887    0.1684479713
C     4.0476098061   -0.7126584053    0.5454595685
F     4.6422662735   -1.3325926065    1.5894001722
C     2.7558062077   -0.9890568256    0.1604336947
F     2.0701951981   -1.9124021530    0.8569987416
N    -2.5044233799   -1.7472571135   -0.2894568741
C    -2.5243299007   -3.1355614662   -0.0381654389
H    -1.5286988020    2.2017049789   -1.2196455002
H     0.0715613067    1.9812967777   -0.2962777317
H    -1.2959163189    2.9194631577    0.3898035288
H    -0.0693864971    0.8451312184    1.9563020468
H    -1.6987504959    0.2734875977    2.5370419025
H    -1.4220583439    2.0768496990    2.2332751751
H    -3.6253831387    0.0407577977    0.5288071632
H    -3.4402413368    1.6178731918    1.3317631483
H    -3.4324541092    1.5812550783   -0.4558846354
H    -2.1059994698    0.1969190389   -2.0787405968
H    -2.4957206249   -3.7701230049   -0.9446631074
H    -1.6034616232   -3.4103417397    0.5410621762
H    -3.3694050312   -3.4806177616    0.6052140594
34

O    -1.7255494595    1.6549793482   -1.7580187321
S    -0.9359244704    0.1915722787   -0.6708253026
C    -2.3563883305   -0.6547895074   -0.2945591807
C    -2.7000417709   -1.8365447521   -1.1437778473
C    -3.5454452038    0.2857020795   -0.3159993291
C    -2.2371389866   -1.1443722248    1.1290560961
N    -0.5791132450   -0.3771468401   -1.9869226217
I     0.5998796225   -0.1244533211   -0.9275125265
C     2.5070867538   -0.0976914242   -0.2348263860
C     3.4359903336    0.8513215780   -0.6132693291
F     3.0938577652    1.8259328604   -1.4866133928
C     4.7331647873    0.8672996759   -0.1404269934
F     5.6406984329    1.8099510670   -0.5219698548
C     5.1420650482   -0.1075016633    0.7579850554
F     6.4185419083   -0.1208316758    1.2455321550
C     4.2367706299   -1.0754708052    1.1597496271
F     4.6012210846   -2.0582065582    2.0475909710
C     2.9543573856   -1.0661056042    0.6730529070
F     2.0975217819   -2.0165004730    1.0795286894
N    -0.8784384131    1.1788910627    0.4167149663
C    -0.6998106837    2.5408725739    0.7784023881
H    -3.5194251537   -2.3866953850   -0.6667162180
H    -1.7746989727   -2.4309375286   -1.2691142559
H    -3.0725164413   -1.4778131247   -2.1436803341
H    -4.1035599709    0.3166219294    0.6364395022
H    -4.2745528221    0.0419583470   -1.1158676147
H    -3.2306106091    1.3384311199   -0.5058283210
H    -3.2059314251   -1.5894721746    1.4861553907
H    -1.5097081661   -1.9918568134    1.1373438835
H    -1.9336147308   -0.3166991174    1.7795196772
H    -1.1662846804   -0.7671239972   -2.7201952934
H    -1.4831861258    2.8880844116    1.4803583622
H     0.3183907866    2.6956050396    1.1313034296
H    -0.8476064205    3.1529896259   -0.1493307054
34

O    -0.5978062749   -0.0298089627    1.3355498314
S    -0.8401960731   -0.6324796081    0.1451713890
C    -2.0438499451    0.5184948444   -0.5429837108
C    -2.9471302032    1.0377318859    0.5736837983
C    -2.9750113487   -0.1868425161   -1.4997298717
C    -1.2337743044    1.5840590000   -1.1918075085
N    -0.5172522664   -1.2738529444   -1.2318255901
I     0.7766234875   -0.7605764270   -0.4461564124
C     2.6513781548   -0.1727360487   -0.0543870740
C     2.9820106030    0.5978049040    1.0634849072
F     1.9927759171    0.9696366191    1.9293749332
C     4.2695121765    0.9986258149    1.3279877901
F     4.5361366272    1.7439962626    2.4244523048
C     5.3063535690    0.6549491286    0.4928502440
F     6.5818662643    1.0146266222    0.6961061954
C     5.0008792877   -0.1033920869   -0.6129844189
F     6.0041584969   -0.4643584490   -1.4657158852
C     3.7314977646   -0.5044029355   -0.8829355240
F     3.4481267929   -1.2564204931   -1.9851316214
N    -1.7688759565   -2.0347330570    0.6405938268
C    -2.6167173386   -2.0315401554    1.7681024075
H    -3.3898355961    1.9737241268    0.2395221293
H    -2.3113806248    1.1790499687    1.4683086872
H    -3.7086915970    0.2624124885    0.7669737935
H    -3.1025834084   -1.2151015997   -1.1599217653
H    -2.5319204330   -0.0932675824   -2.5296163559
H    -3.9299149513    0.3497905135   -1.5407643318
H    -0.2440056652    1.2281790972   -1.5437557697
H    -1.7351388931    2.0548427105   -2.0652332306
H    -1.0703688860    2.4316849709   -0.4750430286
H    -1.1565934420   -1.6209691763   -1.9363241196
H    -2.4523282051   -3.0032434464    2.3075911999
H    -2.4215161800   -1.1894700527    2.4748125076
H    -3.6864271164   -2.0264132023    1.5097502470
34

O    -0.2774765491    0.2496568859   -1.4277925491
S    -0.7985247970    0.2969159782   -0.0635230988
C    -2.3500566483   -0.4512588382   -0.4689849615
C    -2.9596633911    0.4314707518   -1.5673558712
C    -3.3352203369   -0.3864158094    0.6735663414
C    -2.1637845039   -1.8624147177   -0.9170393944
N    -0.7127344608   -0.7210593820    1.2234266996
I     0.5481301546   -1.1937241554    0.3005321324
C     2.5383398533   -0.6240470409    0.0489286482
C     3.5305023193   -1.4628356695    0.4409328401
F     3.2140831947   -2.6741640568    0.9973403811
C     4.8767828941   -1.1706827879    0.3137938380
F     5.8005323410   -2.0521216393    0.7250530124
C     5.2391352654    0.0502345227   -0.2467541546
F     6.5512423515    0.3253184259   -0.3662409186
C     4.2365260124    0.9206608534   -0.6533847451
F     4.6402521133    2.0966053009   -1.1929709911
C     2.8999941349    0.5908123851   -0.5088276863
F     1.9583475590    1.4548907280   -0.9121355414
N    -0.6567428112    1.5919573307    0.5362719893
C    -1.1282238960    2.5301139355    1.5059189796
H    -2.2003965378    0.5157284141   -2.3504676819
H    -3.1419961452    1.4188196659   -1.0594685078
H    -3.8936886787   -0.0544586144   -1.8853553534
H    -3.2973983288    0.5606321096    1.2236341238
H    -3.2514100075   -1.2553620338    1.3493387699
H    -4.3477177620   -0.4594606459    0.2165528983
H    -3.1061007977   -2.2093594074   -1.3742772341
H    -1.3857398033   -1.8883945942   -1.7097265720
H    -1.9404357672   -2.4781563282   -0.0452379473
H    -1.3132178783   -0.5303332806    2.0235350132
H    -0.3759751022    3.3517107964    1.5771713257
H    -2.0509932041    3.0128936768    1.1068042517
H    -1.3463712931    2.0758273602    2.4867417812
34

O    -2.2722067833   -1.7733476162   -1.0140341520
S    -1.1866402626   -1.1056154966   -0.3279200196
C    -2.0963823795    0.0579673909    0.6310352087
C    -3.4750452042    0.3274017274    0.1542579979
C    -1.3077045679    1.3723571301    0.5578575134
C    -2.1323826313   -0.3198914528    2.0794909000
N    -0.5836657882   -2.3341252804    0.3280650973
I     0.2388792932   -0.9552139044    0.6511844993
C     2.1550467014   -0.2906419635    0.3184617758
C     2.4575562477    0.7643793821   -0.5310810208
F     1.4717210531    1.3938174248   -1.1747219563
C     3.7633326054    1.1923711300   -0.7369610071
F     4.0016474724    2.2241981030   -1.5745788813
C     4.7658476830    0.5261064768   -0.0604733415
F     6.0617899895    0.9368071556   -0.2529956698
C     4.5246500969   -0.5287170410    0.7960928679
F     5.5298104286   -1.1735973358    1.4549506903
C     3.2195630074   -0.9250896573    0.9755282402
F     2.9990749359   -1.9626970291    1.8200854063
N    -0.4891476631   -0.3184323013   -1.6628919840
C    -1.1720629930    0.2301876843   -2.7596263885
H    -3.5284028053    1.1234734058   -0.6239377260
H    -4.1265258789    0.5916236043    1.0155644417
H    -3.9258944988   -0.6184037924   -0.2642857730
H    -1.2934269905    1.6595126390   -0.4997636676
H    -0.3107928038    1.2641803026    1.0122650862
H    -1.9339112043    2.1078193188    1.1051707268
H    -1.1516683102   -0.4566496313    2.5395653248
H    -2.6147568226    0.5213007927    2.6138916016
H    -2.7124836445   -1.2416046858    2.2053534985
H    -0.6703308821   -3.3664655685    0.3829913437
H    -0.9910181761    1.3136340380   -2.8580288887
H    -0.9462016821   -0.2857749462   -3.7163693905
H    -2.2682681084    0.0491297655   -2.5841422081
34

O    -0.2629546225   -0.0140880952    1.3153797388
S    -0.9375322461   -0.3897445500    0.0541295186
C    -2.3068549633    0.6815230250    0.1340288967
C    -2.9528732300    1.0278750658   -1.1529698372
C    -1.9678950310    2.0131018162    0.8164848685
C    -3.3393123150    0.0096134143    1.0317705870
N    -0.8808824420   -0.6752597690   -1.3835282326
I     0.4982732534    0.0056612846   -0.9274411798
C     2.4956293106    0.1572994888   -0.5021265149
C     3.3452062607   -0.9153466225   -0.2226647139
F     2.8084697723   -2.1473855972   -0.2337431312
C     4.6834278107   -0.7321756482    0.0552465953
F     5.5135641098   -1.7752091885    0.3278700113
C     5.2423148155    0.5240548849    0.0690784976
F     6.5478749275    0.7647432685    0.3348530233
C     4.4313230515    1.5926496983   -0.2015641034
F     4.9304127693    2.8697314262   -0.2027095407
C     3.1055381298    1.4164090157   -0.4773418903
F     2.3337368965    2.5206410885   -0.7424591780
N    -1.3707743883   -1.9215399027    0.5923814178
C    -1.1522445679   -3.1784148216    0.0255560670
H    -4.0154490471    1.3166283369   -0.9348806739
H    -3.0047688484    0.2360184491   -1.9017077684
H    -2.4821734428    1.9396775961   -1.5712743998
H    -2.7310359478    2.7432870865    0.5487294197
H    -0.9425669312    2.3053443432    0.4434159994
H    -1.9221050739    1.8480435610    1.9027756453
H    -3.9949169159   -0.5907438993    0.3508676291
H    -2.8624525070   -0.7290318608    1.7070345879
H    -3.9128417969    0.7852151990    1.5683734417
H    -1.5293052197   -1.1861768961   -1.9694266319
H    -1.8807020187   -3.2997188568   -0.8261466026
H    -0.1049959436   -3.2616367340   -0.3192574382
H    -1.3811345100   -3.9410457611    0.8212973475
34

O    -1.9815521240    2.0211167336    0.9657939672
S    -0.9988859892    0.9796362519   -0.5758579969
C    -1.5778689384   -0.2561999559    0.2171026766
C    -1.0654963255   -0.4221619368    1.6525518894
C    -1.2179486752   -1.5886008739   -0.4661565125
C    -3.1084403992   -0.3480764329    0.3473908007
N    -0.2979113758    2.2319035530   -0.6581643224
I     0.5088340044    0.8803139925   -0.3151797652
C     2.2466254234   -0.1148314849   -0.0370060392
C     2.6270608902   -1.1941478252   -0.8392193317
F     1.8299270868   -1.6300874949   -1.8609738350
C     3.8166244030   -1.8669953346   -0.6404066682
F     4.1615638733   -2.9202706814   -1.4425848722
C     4.6793041229   -1.4892164469    0.3711736798
F     5.8574342728   -2.1115157604    0.6122574210
C     4.3263707161   -0.4244829118    1.1789599657
F     5.1376466751    0.0026871539    2.2023193836
C     3.1379184723    0.2477172166    0.9803137183
F     2.8307204247    1.2966414690    1.8058301210
N    -2.1642832756    1.1694532633   -1.6816116571
C    -2.7774980068    2.4031929970   -2.1347861290
H    -1.5139086246    0.3131533265    2.3468289375
H     0.0397818051   -0.4442724586    1.6765507460
H    -1.4425262213   -1.4233505726    2.0081784725
H    -0.2020245939   -1.8548743725   -0.0972712114
H    -1.1377159357   -1.3587286472   -1.5675092936
H    -1.9394171238   -2.3824005127   -0.2450574785
H    -3.4439890385   -1.3601469994    0.5660417676
H    -3.4589085579    0.4286964834    1.0805307627
H    -3.5253989697   -0.0456271209   -0.6292690039
H    -0.5628606081    3.1755521297   -0.9567561746
H    -3.3231940269    2.8775844574   -1.2704150677
H    -1.9410176277    3.0346848965   -2.4801785946
H    -3.5189659595    2.1736543179   -2.9187221527
34

O    -1.7048343420   -0.8699797988   -2.2536630630
S    -0.9560050964   -0.0718594342   -0.5544671416
C    -2.4222457409    0.3129463792    0.2050466985
C    -2.3749766350    1.7384070158    0.7374212146
C    -2.7337822914   -0.5489783287    1.4136967659
C    -3.6339831352    0.2477572262   -0.7050639391
N    -0.8234081268    1.1511278152   -1.4327656031
I     0.4906395674    0.5630450845   -0.7088396549
C     2.4544394016    0.4838231802   -0.2089070827
C     3.3621852398    1.4389046431   -0.6530576944
F     2.9705095291    2.4795069695   -1.4505487680
C     4.6975817680    1.3789726496   -0.3089795411
F     5.5637416840    2.3347871304   -0.7630774379
C     5.1959233284    0.3669029474    0.4932978749
F     6.5026469231    0.3172933757    0.8238128424
C     4.3015570641   -0.5915721059    0.9427933693
F     4.7910804749   -1.5854371786    1.7306725979
C     2.9720656872   -0.5171297193    0.5901768804
F     2.1545903683   -1.5061979294    1.0779680014
N    -0.7210318446   -1.4303905964   -0.1620093882
C    -0.3936567903   -2.7739214897   -0.4851358235
H    -1.9464367628    2.4632277489    0.0479380116
H    -1.8213629723    1.7806359529    1.7111569643
H    -3.4233396053    2.0554807186    0.9460563064
H    -2.3246817589   -1.5688920021    1.1864562035
H    -3.7983322144   -0.6161299944    1.6437773705
H    -2.1143498421   -0.1371832192    2.2545247078
H    -4.4984378815    0.6034210920   -0.1077919155
H    -3.5231347084    0.8957893252   -1.5801523924
H    -3.7965176105   -0.8183891177   -0.9505905509
H    -1.5031810999    1.7583743334   -1.8839666843
H     0.0963639244   -3.2050669193    0.4230678976
H    -1.3295959234   -3.3346219063   -0.6708267331
H     0.2899693549   -2.7946534157   -1.3480203152
34

O    -0.1903468966    1.3780084848   -0.0725835934
S    -0.7411371469    0.1031935439    0.2857223153
C    -2.2026875019    0.0555616096   -0.5563209653
C    -2.2344820499    0.9734293222   -1.7751302719
C    -3.2924671173    0.6113665700    0.3717087209
C    -2.7049517632   -1.2660033703   -1.0381512642
N    -0.5182018876   -1.3893181086    0.5383327603
I     0.7178757787   -0.8122602105   -0.3407006860
C     2.6860980988   -0.2299446911   -0.3528462648
C     3.2878730297    0.4581697583    0.6894930601
F     2.5163490772    0.7521495819    1.7652643919
C     4.6181621552    0.8395741582    0.6563188434
F     5.1661148071    1.5152975321    1.7062634230
C     5.3877615929    0.5307343602   -0.4487442672
F     6.7080068588    0.9005041122   -0.4996246994
C     4.8153719902   -0.1623047888   -1.5191953182
F     5.6068978310   -0.4446744025   -2.5833778381
C     3.4850459099   -0.5319845080   -1.4619574547
F     2.9251191616   -1.2088793516   -2.5069482327
N    -0.9191269875    0.4390868247    1.9491229057
C    -1.7988462448   -0.2013462931    2.8418619633
H    -2.5171568394    2.0016052723   -1.4552713633
H    -2.9475538731    0.6694741845   -2.5395584106
H    -1.2089856863    0.9888443947   -2.2388463020
H    -2.8594865799    1.3300428391    1.0835492611
H    -3.8546166420   -0.2262947708    0.8539894223
H    -4.0587530136    1.1703931093   -0.1979838312
H    -1.9427529573   -2.0716266632   -1.0062659979
H    -3.5832588673   -1.6522967815   -0.4469515383
H    -3.0703880787   -1.2764002085   -2.0868306160
H    -1.2286071777   -2.0180797577    0.9103043079
H    -2.5701918602    0.4437449574    3.3001365662
H    -2.2919445038   -1.1131885052    2.4554247856
H    -1.1847327948   -0.5565783381    3.7197964191
34

O    -0.1498106122   -1.2773605585   -0.2399562448
S    -0.7102385759   -0.0313738175    0.0033692147
C    -2.3018581867   -0.4281044900    0.4055411816
C    -2.8035390377   -1.7468885183   -0.1817863584
C    -3.3226950169    0.6185649037    0.0081754392
C    -2.3875617981   -0.5806244016    1.9110707045
N    -0.7449905872    1.2914400101    0.8617241979
I     0.5207790732    0.3750165999    1.3542699814
C     2.5443706512    0.3288030028    0.7875254750
C     3.1774125099    1.5625617504    0.5979678035
F     2.4914681911    2.7308716774    0.7788265944
C     4.5113015175    1.6120686531    0.2235269845
F     5.1340894699    2.8185250759    0.0371003449
C     5.2144675255    0.4417728782    0.0378561765
F     6.5251660347    0.5194214582   -0.3303777575
C     4.5986976624   -0.7932364941    0.2225859314
F     5.2954792976   -1.9457050562    0.0385306366
C     3.2556509972   -0.8136083484    0.5993078947
F     2.6360964775   -1.9975308180    0.7845991850
N    -0.5304220319    0.7509671450   -1.4780905247
C    -1.0247750282    0.0964485630   -2.6279180050
H    -3.4544756413   -1.6121677160   -1.0519849062
H    -3.3990845680   -2.3241708279    0.5715780854
H    -1.9170901775   -2.3876059055   -0.3830065429
H    -4.3251614571    0.1282316148    0.0841432288
H    -3.2076601982    0.8988763094   -1.0651334524
H    -3.3427603245    1.4897817373    0.6664406657
H    -2.1453073025    0.4296626449    2.3155717850
H    -3.4402987957   -0.7699643970    2.2020583153
H    -1.6816761494   -1.3274421692    2.2911133766
H    -1.3565540314    2.0848097801    0.6847776175
H    -0.2932659090   -0.0998525098   -3.4242136478
H    -1.5815466642   -0.8409472108   -2.4177019596
H    -1.7842068672    0.7987595201   -3.0811181068
34

O    -1.6602536440    2.2475888729    0.8704906106
S    -0.7806953192    0.5149192214    0.4530718625
C    -2.1304903030   -0.5259137750    0.5991628766
C    -3.4124598503    0.1872335821    0.9755049944
C    -1.9288138151   -1.6254674196    1.6534415483
C    -2.4148006439   -1.2816913128   -0.6937203407
N    -0.3734215796    0.5717123747    1.8745455742
I     0.7844314575    0.4665768147    0.7576115131
C     2.6635479927    0.2740806341    0.0279694702
C     3.0718395710   -0.9011636972   -0.6175035238
F     2.1543309689   -1.9120482206   -0.7358946800
C     4.3502125740   -1.0443081856   -1.1191293001
F     4.6880025864   -2.2087912560   -1.7357162237
C     5.2438707352    0.0056151939   -0.9757375717
F     6.5028920174   -0.1669820994   -1.4833405018
C     4.8851084709    1.1816966534   -0.3469541669
F     5.8006467819    2.1851012707   -0.2310776263
C     3.6021132469    1.3035674095    0.1471202075
F     3.2260808945    2.4610700607    0.7738870382
N    -0.8585982323    0.9216336012   -0.9341802001
C    -1.8614625931    1.3305939436   -1.8416160345
H    -3.2387123108    1.2368636131    1.3076583147
H    -3.9402959347   -0.2927480340    1.8240723610
H    -4.1525650024    0.1812747717    0.1389496922
H    -1.9033964872   -1.2362276316    2.6707429886
H    -0.9879296422   -2.1303534508    1.3458224535
H    -2.7548537254   -2.3452296257    1.5811797380
H    -3.2387738228   -0.8214421272   -1.2712630033
H    -1.4711761475   -1.2504633665   -1.2721520662
H    -2.6376750469   -2.3472492695   -0.5422693491
H    -0.8849538565    0.5296632648    2.7520792484
H    -1.5596016645    2.3200483322   -2.2970297337
H    -1.9515937567    0.6285946965   -2.6848082542
H    -2.8305537701    1.5422451496   -1.3302561045
34

O    -0.4336428046    0.7376402617   -1.4514369965
S    -1.0130064487    0.8044291735   -0.1447745562
C    -1.8344233036   -0.6544240713   -0.0428293459
C    -3.2335166931   -0.4055818915   -0.6316357851
C    -2.0661942959   -1.2901630402    1.2821291685
C    -1.2670750618   -1.7681788206   -0.9348390102
N    -0.8803156018    1.1314325333    1.3427845240
I     0.5728356838    1.1739708185    0.6609259248
C     2.3440964222    0.2094781995    0.2531302273
C     2.5517337322   -1.1087105274    0.6362012029
F     1.5977380276   -1.7978852987    1.2879582644
C     3.7406125069   -1.7737491131    0.3688045442
F     3.9329230785   -3.0623037815    0.7478011250
C     4.7317438126   -1.0830644369   -0.2992829978
F     5.8995022774   -1.7471784353   -0.5580283403
C     4.5640792847    0.2335511446   -0.6987758279
F     5.5832195282    0.8430644274   -1.3497387171
C     3.3686711788    0.8669421673   -0.4172911644
F     3.1980657578    2.1666989326   -0.8095074892
N    -2.0768141747    2.1281578541   -0.4619393051
C    -1.7962830067    3.4570837021   -0.0937616900
H    -3.1453003883   -0.3360459805   -1.7361069918
H    -3.6409497261    0.5449824333   -0.1801108271
H    -3.8723163605   -1.2611701488   -0.3737125993
H    -1.1065458059   -1.4521771669    1.8445820808
H    -2.5490572453   -2.2697257996    1.0969570875
H    -2.7375426292   -0.7148325443    1.9396915436
H    -0.8224542737   -1.3060810566   -1.8237684965
H    -0.5890050530   -2.3864579201   -0.3295984566
H    -2.0947039127   -2.4517102242   -1.2461298704
H    -1.6767317057    1.1227164268    1.9874289036
H    -1.2954125404    4.0510544777   -0.8846400976
H    -2.7566313744    3.9704420567    0.1787577569
H    -1.1972990036    3.4277954102    0.8407564163
34

O    -0.2003085613   -0.8925234675    1.4922842979
S    -0.9910775423   -0.6684471965   -0.0808744654
C    -1.9870063066    0.7122021914    0.0353971981
C    -1.5875965357    1.8739821911   -0.8510924578
C    -2.0437486172    1.2808498144    1.4580211639
C    -3.4583330154    0.4564891458   -0.3214368522
N    -0.5350779891   -1.3317643404   -1.2848471403
I     0.3953731656   -0.0930064321   -0.7584610581
C     2.4030861855    0.1534035355   -0.2461105436
C     3.3557529449   -0.8479303718   -0.3918835819
F     2.9655263424   -2.0487434864   -0.8924062252
C     4.6673331261   -0.6094019413   -0.0302163269
F     5.5582661629   -1.6148802042   -0.1905445158
C     5.0705981255    0.6195135713    0.4828418791
F     6.3741321564    0.8424436450    0.8373673558
C     4.1326332092    1.6034444571    0.6256855726
F     4.5403170586    2.8125436306    1.1327650547
C     2.8137764931    1.3835334778    0.2689471841
F     1.9443703890    2.4075722694    0.4402899742
N    -2.0454418659   -1.7524849176    0.3320610225
C    -2.1677770615   -3.1604838371    0.2578296959
H    -2.4367527962    2.5069169998   -1.1426205635
H    -1.1441417933    1.3984322548   -1.7591835260
H    -0.7576997280    2.4299597740   -0.3836054802
H    -2.4870083332    0.5356013179    2.1552524567
H    -2.7737872601    2.1206698418    1.4030258656
H    -1.0742759705    1.6785203218    1.7661511898
H    -3.9467658997    1.4063301086   -0.5821796656
H    -3.4283835888   -0.1932173222   -1.2269949913
H    -3.9231441021   -0.0852640644    0.5180024505
H    -0.6462574601   -2.1628682613   -1.9087822437
H    -1.4569692612   -3.5923607349   -0.4937447906
H    -1.9500246048   -3.6750049591    1.2210422754
H    -3.1795873642   -3.4940268993   -0.1035210267
34

O    -0.8213831186   -0.6243230700    1.3509671688
S    -0.9986598492   -0.2971573472    0.0518007055
C    -2.3028974533    0.8683018684    0.0908357203
C    -3.6247382164    0.2129111141   -0.3114039004
C    -2.0366880894    2.0691027641   -0.8080714345
C    -2.5439333916    1.4387302399    1.4735417366
N    -0.7726973295   -0.2253100425   -1.4720481634
I     0.5338633657   -0.1364641339   -0.5406355858
C     2.4926211834   -0.0474044569   -0.0561464839
C     3.3868858814   -1.0536853075   -0.4430524707
F     2.8835444450   -2.0988266468   -1.1612756252
C     4.7254805565   -0.9944623709   -0.1129259914
F     5.4987382889   -2.0423264503   -0.5507457256
C     5.2336301804    0.0509687439    0.6065462232
F     6.5579771996    0.0481624380    0.8974941373
C     4.3759407997    1.0582331419    1.0021038055
F     4.9109182358    2.0799231529    1.7137110233
C     3.0296902657    1.0089724064    0.6760730147
F     2.2454831600    2.0237014294    1.0921869278
N    -1.9550387859   -1.9138126373   -0.3102177382
C    -1.1319220066   -3.0572049618   -0.1513470113
H    -3.5655243397   -0.2635916770   -1.3091226816
H    -4.4231772423    0.9514018893   -0.2192965895
H    -3.7752745152   -0.6224155426    0.4147187471
H    -1.1747272015    2.5977590084   -0.3141216636
H    -2.9310142994    2.6918163300   -0.7798120975
H    -1.8111577034    1.8101271391   -1.8435531855
H    -3.2056787014    0.7888835669    2.0813820362
H    -1.5495548248    1.5980365276    1.9494358301
H    -2.9966726303    2.4566187859    1.3865784407
H    -1.4149881601   -0.1495852768   -2.2510647774
H    -0.3167113066   -2.9061563015    0.6074175835
H    -1.7751848698   -3.8497300148    0.3052059412
H    -0.7471491694   -3.4711942673   -1.0965342522
34

O    -1.4461522102   -1.9293195009    0.9457976222
S    -0.9552922845   -0.1384599060    0.2858254015
C    -2.4167535305    0.5575245023    0.0272658225
C    -2.6522271633    1.8949905634    0.7448175550
C    -3.5912926197   -0.3145062625    0.4895556271
C    -2.6875960827    0.8645970225   -1.4325180054
N    -0.7601541281    0.1413157284    1.7652021646
I     0.5191991925    0.4148571789    0.8271638155
C     2.4728517532    0.1470372379    0.3150124550
C     3.3279731274    1.2486289740    0.1896794438
F     2.8039631844    2.4940063953    0.4222112596
C     4.6452331543    1.1248894930   -0.1510293782
F     5.3863487244    2.2777528763   -0.2435859442
C     5.1931095123   -0.1175921038   -0.3893192708
F     6.5066227913   -0.2241315395   -0.7276976705
C     4.3918967247   -1.2149237394   -0.2771748304
F     4.9624176025   -2.4367871284   -0.5194709301
C     3.0664198399   -1.0853985548    0.0660685152
F     2.3119254112   -2.1906569004    0.1658458114
N    -0.5845140815   -0.7641781569   -0.9510368705
C    -0.3087597489   -1.9234013557   -1.6977307796
H    -3.7230558395    2.1652848721    0.6283916235
H    -2.0815892220    2.6688549519    0.1956750453
H    -2.4639687538    1.8442581892    1.8184576035
H    -4.5590319633    0.2183760852    0.3538142145
H    -3.4494788647   -0.6566971540    1.5274664164
H    -3.5944492817   -1.1888264418   -0.1638552397
H    -1.7119984627    1.0403051376   -1.9287304878
H    -3.1430442333   -0.0502118208   -1.8752652407
H    -3.3795261383    1.7349300385   -1.5645947456
H    -1.4352990389    0.2101664394    2.5240116119
H    -1.1760543585   -2.2573015690   -2.3329088688
H     0.5690788627   -1.7697492838   -2.3555836678
H    -0.0368018895   -2.7856342793   -1.0296136141
34

O    -0.3283730149    0.4068102837    1.3970186710
S    -0.9622935653    0.8199425340    0.2105534226
C    -1.7663578987   -0.5380804539   -0.3390410542
C    -2.1023786068   -0.6600276828   -1.7870855331
C    -3.0738637447   -0.6341794133    0.4200859666
C    -0.9928125739   -1.8119860888    0.0215952992
N    -0.8810654879    1.6495674849   -1.1131294966
I     0.6067032814    1.4214603901   -0.5446668863
C     2.4417726994    0.5371813774   -0.4067504108
C     3.3843584061    1.0189214945    0.5107368231
F     3.0480837822    2.0743710995    1.2936143875
C     4.6243944168    0.4804340005    0.6573681831
F     5.5022292137    0.9880560040    1.5651868582
C     4.9955739975   -0.5804836154   -0.1126126945
F     6.2165279388   -1.1590902805   -0.0120056337
C     4.1150698662   -1.1052616835   -1.0373009443
F     4.4986586571   -2.1630778313   -1.7981370687
C     2.8608791828   -0.5399419665   -1.1668927670
F     2.0040435791   -1.0585305691   -2.0738711357
N    -2.0116841793    2.0111093521    0.8820896745
C    -2.6937742233    1.8776277304    2.1086051464
H    -1.2312239408   -0.3291896880   -2.3926105499
H    -2.9727115631    0.0298473332   -1.9885346889
H    -2.4376626015   -1.6728973389   -2.0185480118
H    -3.6346232891    0.3005164266    0.4476444423
H    -2.9379284382   -1.1256759167    1.4120856524
H    -3.7276587486   -1.3654996157   -0.1400289536
H    -1.4722437859   -2.4083707333    0.7952961326
H    -0.7817013264   -2.4493167400   -0.8359221220
H     0.0123142442   -1.5223047733    0.4351321459
H    -1.6564338207    1.7513538599   -1.7629278898
H    -3.7542052269    2.1943266392    1.9168754816
H    -2.5992925167    0.9193513393    2.6210763454
H    -2.2923202515    2.6430373192    2.8351011276
34

O    -0.8975445628   -0.7434948683   -2.2526612282
S    -0.7565779686    0.1986731589   -0.5508897305
C    -2.3351879120    0.4493567944   -0.1310653389
C    -2.5957479477    1.9353531599    0.1483349502
C    -2.8252618313   -0.3002953827    1.0826972723
C    -3.2854013443    0.1080632061   -1.2865006924
N    -0.4884694219    1.3662631512   -1.4477018118
I     0.6358199716    1.0723397732   -0.3166253865
C     2.5753862858    0.4714305401    0.0376749747
C     3.3571982384    1.1767928600    0.9378865957
F     2.8364958763    2.2560482025    1.5765025616
C     4.6638231277    0.7914138436    1.1920828819
F     5.4443006516    1.4806140661    2.0787711143
C     5.1796417236   -0.3196179867    0.5259815454
F     6.4624910355   -0.7014738321    0.7727387547
C     4.4038796425   -1.0281194448   -0.3741358519
F     4.9598112106   -2.0990548134   -0.9909040332
C     3.0912046432   -0.6375893354   -0.6268216372
F     2.3582851887   -1.3442180157   -1.5070179701
N    -0.3958737254   -1.0769574642    0.0492935218
C    -0.9297059774   -2.3845946789    0.1019380763
H    -2.6129057407    2.1054782867    1.2449337244
H    -3.5154218674    2.3059775829   -0.3006201684
H    -1.7545614243    2.5545423031   -0.2272214592
H    -3.3473126888    0.3635870218    1.8278301954
H    -1.9925682545   -0.7441323400    1.6612472534
H    -3.6175923347   -1.0540522337    0.8142743707
H    -4.3323163986    0.0210531708   -0.9384379387
H    -3.1849648952    0.9689006209   -2.0051298141
H    -2.8910691738   -0.7713167667   -1.7996772528
H    -1.1134477854    1.8986333609   -2.0581884384
H    -0.7846237421   -2.7487876415    1.1304944754
H    -1.9867002964   -2.4782485962   -0.2209233642
H    -0.3250824213   -3.0925679207   -0.5347371697
34

O    -0.3978134692   -0.4976969063    1.3084038496
S    -0.8390464187    0.1638205945    0.0982568786
C    -2.3407788277   -0.5627608299   -0.0867512226
C    -2.1703448296   -2.0671932697   -0.2563386858
C    -3.2069575787   -0.0602270700   -1.2281674147
C    -3.1618294716   -0.3837190866    1.1755055189
N    -0.5202826262    0.1076733395   -1.4836270809
I     0.6338497400   -0.8326479197   -0.8174807429
C     2.5709745884   -0.4587112367   -0.1589378715
C     3.6285119057   -0.8829343319   -0.9390302300
F     3.3974320889   -1.5378733873   -2.1240739822
C     4.9396486282   -0.6672009826   -0.5614761114
F     5.9617185593   -1.1023118496   -1.3609552383
C     5.2637352943   -0.0231897663    0.6027886868
F     6.5425882339    0.1866831332    0.9700494409
C     4.1966557503    0.4090666473    1.3975371122
F     4.4974327087    1.0571078062    2.5693528652
C     2.8844611645    0.1915295273    1.0167154074
F     1.8908276558    0.6139889359    1.7924760580
N    -0.6558853984    1.6816282272    0.3311370909
C    -1.1779106855    2.8681261539   -0.2736459672
H    -2.9510977268   -2.4593002796   -0.9208143353
H    -2.2975924015   -2.5993185043    0.7277447581
H    -1.1827385426   -2.3384647369   -0.6628692746
H    -3.1617207527    1.0232721567   -1.3504264355
H    -4.2323594093   -0.4377508163   -1.0112230778
H    -2.8788542747   -0.6181353927   -2.1349034309
H    -2.5970153809   -0.5433722734    2.0914442539
H    -3.6037886143    0.6389451027    1.1280308962
H    -4.0203251839   -1.0934070349    1.0984370708
H    -1.0738554001    0.6879599094   -2.1159236431
H    -1.0733740330    2.8210933208   -1.3958529234
H    -2.2344522476    2.9518294334    0.0399804413
H    -0.6298134327    3.7634916306    0.0833297744
34

O    -1.3947557211   -1.8610876799   -1.5736396313
S    -0.8840696812   -0.3725954294   -0.7336496711
C    -2.4214291573   -0.0594821349   -0.2921712399
C    -3.0685381889   -1.1678712368    0.5125537515
C    -3.3241200447    0.1177680492   -1.5225448608
C    -2.5905365944    1.2310260534    0.5037750602
N    -0.7013552785    0.8282905817   -1.4956619740
I     0.5434492826   -0.2417627126   -1.4935688972
C     2.4863877296   -0.1292194277   -0.6846089959
C     3.4352679253   -1.0830236673   -0.9870382547
F     3.1509385109   -2.1277458668   -1.8163590431
C     4.7267875671   -1.0235140324   -0.4599268138
F     5.6667842865   -1.9530904293   -0.7489476800
C     5.0390634537    0.0273271501    0.3841295838
F     6.2897291183    0.0907937139    0.8986018896
C     4.1195220947    0.9854297042    0.7005690336
F     4.4278087616    2.0179393291    1.5304267406
C     2.8523256779    0.8974450827    0.1629272103
F     1.9607077837    1.8644179106    0.4959952831
N    -0.3925359845   -0.8739898205    0.7516639233
C    -0.2572013438   -0.1552702934    1.9291647673
H    -3.9161586761   -0.7531791329    1.0685766935
H    -2.3073768616   -1.6591794491    1.1690431833
H    -3.4187986851   -1.9313083887   -0.2423966229
H    -4.3952360153   -0.0057889191   -1.2582117319
H    -2.9987783432   -0.5374283791   -2.3367829323
H    -3.2103297710    1.1623086929   -1.8597521782
H    -3.5249452591    1.7702162266    0.2327120155
H    -2.5879139900    1.0584750175    1.5978108644
H    -1.7428586483    1.9276560545    0.2801711261
H    -1.0619223118    1.7843810320   -1.7099847794
H    -0.2031668425    0.9562211633    1.8427426815
H    -1.0157917738   -0.3637799621    2.7209553719
H     0.7190472484   -0.4203790426    2.4334261417
34

O    -0.3365002275   -0.0837034062    1.3953280449
S    -0.8700822592    0.1668962836    0.0718294233
C    -2.2962269783   -0.7560586333    0.1716987640
C    -3.1769673824   -0.8154748082   -1.0216881037
C    -3.1082506180   -0.1522548795    1.3189762831
C    -1.9702911377   -2.1696300507    0.6095255613
N    -0.5931775570   -0.0875126347   -1.4525055885
I     0.6484109759   -0.7727552652   -0.6686472893
C     2.5923941135   -0.2847121656   -0.1141640320
C     3.1803457737   -0.8820028305    0.9716593623
F     2.4844665527   -1.7946312428    1.6827162504
C     4.4587221146   -0.5649698973    1.3411070108
F     4.9876923561   -1.1881190538    2.4237403870
C     5.1501469612    0.3675567806    0.6028869152
F     6.4237852097    0.6428694129    1.0209441185
C     4.5748901367    0.9729789495   -0.4854106009
F     5.2998728752    1.8774400949   -1.1690760851
C     3.2734100819    0.6633884311   -0.8777692914
F     2.7039251328    1.2625215054   -1.9548755884
N    -0.9632041454    1.7439415455    0.0137737440
C    -1.2068535089    2.7107031345   -0.9863015413
H    -3.3195118904    0.1303674430   -1.5620653629
H    -4.1876649857   -1.1329015493   -0.6661010981
H    -2.8973224163   -1.6112732887   -1.7676867247
H    -2.9265825748    0.9292080402    1.3654456139
H    -2.8028843403   -0.6304364800    2.2854242325
H    -4.1779627800   -0.3018776178    1.1268960238
H    -1.4213113785   -2.1055755615    1.5632556677
H    -2.9618625641   -2.6586506367    0.7691466808
H    -1.4583903551   -2.7248682976   -0.1789318472
H    -1.2890794277    0.1986896098   -2.1466615200
H    -1.4604586363    3.6829736233   -0.4728074372
H    -0.2836096883    2.9245738983   -1.5660158396
H    -2.0698668957    2.4432992935   -1.6436462402
34

O    -2.1639018059    1.4755475521    1.3031216860
S    -1.1736207008    0.4998118579    0.7487385869
C    -2.3422431946   -0.5923367143   -0.0828628168
C    -1.6848163605   -1.2731072903   -1.2591788769
C    -3.4833958149    0.2235982269   -0.6781647205
C    -2.8706607819   -1.5596479177    0.9219040275
N    -0.6235787868    0.0668856353    2.0711579323
I     0.1356935948   -0.5948694944    0.7791707516
C     2.1466236115   -0.4238313735    0.1635269374
C     3.1080408096   -0.9604905248    1.0087419748
F     2.7528548241   -1.5694878101    2.1839618683
C     4.4566440582   -0.9128749371    0.7194783688
F     5.3704452515   -1.4567019939    1.5849841833
C     4.8425426483   -0.3037612736   -0.4605810046
F     6.1711664200   -0.2707360685   -0.7199687958
C     3.8941228390    0.2268676758   -1.2966303825
F     4.3036675453    0.8175009489   -2.4461655617
C     2.5313189030    0.1732482910   -0.9941833019
F     1.5921956301    0.6898592114   -1.8057456017
N    -0.4893598258    1.5006327629   -0.3786814809
C    -0.2309286147    2.8945281506   -0.2846710086
H    -2.3513238430   -2.1551301479   -1.4808088541
H    -0.6971545815   -1.6818565130   -1.0769127607
H    -1.7294620275   -0.6376321912   -2.1657195091
H    -4.1630787849    0.5454511642    0.1523878574
H    -3.9571902752   -0.3944330812   -1.4385792017
H    -3.0064208508    1.1356287003   -1.1120550632
H    -3.9685180187   -1.4379440546    1.1004279852
H    -2.7298898697   -2.6173782349    0.5925590992
H    -2.3744900227   -1.5055428743    1.9174906015
H    -0.6058745980    0.2762084305    3.0891208649
H    -0.6935296655    3.2354195118    0.6888546348
H     0.8429008722    3.1195328236   -0.2858288586
H    -0.8087789416    3.4670414925   -1.0588897467
34

O    -0.3890127838    2.0805761814    0.2833249271
S    -0.7981411219    0.5788710713    0.5069497824
C    -2.3566672802    0.7106310129    0.1552076489
C    -3.0727388859   -0.6127868891   -0.0658205897
C    -2.6572754383    1.5567417145   -1.0846334696
C    -3.1269705296    1.3931806087    1.2908458710
N    -0.9606307745   -0.2976490855    1.6632813215
I     0.5719997883    0.1024106145    1.3241972923
C     2.4504954815   -0.1687404960    0.5540872812
C     3.0888154507   -1.4002604485    0.4556830227
F     2.4216411114   -2.5126543045    0.9024431705
C     4.3508281708   -1.5466933250   -0.0668212026
F     4.9816355705   -2.7441685200   -0.1668906659
C     5.0477795601   -0.4313428402   -0.5268082023
F     6.2943634987   -0.5460281968   -1.0471923351
C     4.4420976639    0.7997919917   -0.4424055219
F     5.1280989647    1.8984820843   -0.8953089714
C     3.1747219563    0.9317280650    0.0844860896
F     2.6425175667    2.1909637451    0.1332098693
N    -0.4312830865   -0.3287612498   -1.0756579638
C    -0.3673432469   -1.7498954535   -0.9236415625
H    -4.1704077721   -0.3604511917   -0.0129186958
H    -2.8937764168   -1.3431718349    0.7283492684
H    -2.9235196114   -0.9893196225   -1.0995213985
H    -3.5668413639    1.2142286301   -1.5736039877
H    -1.8372974396    1.4711700678   -1.8509041071
H    -2.6497335434    2.6252658367   -0.7792381644
H    -2.4424247742    2.1012885571    1.8299063444
H    -4.0468282700    1.8550937176    0.9289914966
H    -3.3824894428    0.5969330668    2.0309269428
H    -1.6215322018   -0.6485459208    2.3792207241
H     0.7063821554   -2.0226762295   -1.1273339987
H    -0.6112629175   -2.0866181850    0.1013804749
H    -0.9951998591   -2.3175933361   -1.6262289286
34

O    -1.8437927961    2.1363852024   -0.9067500234
S    -1.0143579245    0.9031000733   -0.6965637803
C    -2.2766399384   -0.3091691434   -0.2794767618
C    -3.6562790871    0.2376043051   -0.4129635096
C    -2.0873613358   -0.7897534370    1.1458463669
C    -2.1898159981   -1.5080126524   -1.1954663992
N    -0.4696219563    0.8409293890   -2.1265606880
I     0.2677232921   -0.1804280132   -1.0907497406
C     2.2241573334   -0.4350134134   -0.4010083079
C     2.6397366524   -1.6919031143    0.0387219265
F     1.7667138577   -2.7352092266    0.0130379423
C     3.9276335239   -1.9003708363    0.5026885271
F     4.2803711891   -3.1410362720    0.9183130264
C     4.8008975983   -0.8278112411    0.5213468075
F     6.0580968857   -1.0481328964    0.9783542156
C     4.3966846466    0.4309654236    0.0847986862
F     5.2746229172    1.4867924452    0.1090426147
C     3.1020388603    0.6502358317   -0.3839698434
F     2.6883015633    1.8671860695   -0.8133848906
N    -0.2895571589    1.4134737253    0.6620346904
C    -0.5563858747    2.3733510971    1.6402701139
H    -4.2986907959   -0.2368431985    0.3333157003
H    -4.0707817078    0.1269927323   -1.4382733107
H    -3.6250956059    1.3263226748   -0.1503750086
H    -1.5576789379   -1.7860417366    1.1423289776
H    -3.0665359497   -1.0101290941    1.6193025112
H    -1.5713571310   -0.0518689640    1.7636092901
H    -1.9546012878   -1.2285983562   -2.2319650650
H    -1.4535923004   -2.2332401276   -0.7592172027
H    -3.1755955219   -2.0026643276   -1.1912362576
H    -0.4419577122    1.3889868259   -3.0075309277
H    -1.6169682741    2.3412795067    1.9328060150
H     0.1463345885    2.2115597725    2.5019185543
H    -0.3566456735    3.3810608387    1.1777559519
34

O    -0.4125275314    0.5210639834   -0.9874584079
S    -0.8793832064    0.2156188041    0.3065117002
C    -2.2170972824   -0.8628022671   -0.0844992101
C    -1.5490411520   -2.1066191196   -0.6513907909
C    -3.0392067432   -0.2994439900   -1.2371608019
C    -3.1333661079   -1.1317573786    1.0499886274
N    -0.6401008368   -0.3302266896    1.7248104811
I     0.6939442754   -0.5269287229    0.8481737375
C     2.5997974873   -0.0931207314    0.3088410497
C     3.1282694340    1.1841074228    0.3697430491
F     2.3790373802    2.2067155838    0.7988014221
C     4.4399938583    1.4561780691   -0.0062793661
F     4.9540152550    2.7078788280    0.0546608195
C     5.2587332726    0.4568006396   -0.4536615014
F     6.5489349365    0.6796711683   -0.8316434622
C     4.7616500854   -0.8215833902   -0.5249539018
F     5.5858545303   -1.8110942841   -0.9723092318
C     3.4619991779   -1.0973567963   -0.1535248607
F     3.0229141712   -2.3715231419   -0.2428628057
N    -1.4206341505    1.7034968138    0.8154225349
C    -1.9233707190    2.7551648617    0.0111982794
H    -1.1224875450   -2.7314980030    0.1314789355
H    -0.7500818372   -1.7295551300   -1.3447223902
H    -2.2559096813   -2.6910166740   -1.2716889381
H    -2.6792700291   -0.6113387942   -2.2182545662
H    -3.1256909370    0.7887414098   -1.1539981365
H    -4.0791497231   -0.7011304498   -1.1386327744
H    -4.0718674660   -1.5294200182    0.6556777954
H    -2.7423429489   -1.8689783812    1.7904936075
H    -3.2594938278   -0.1844441295    1.6296738386
H    -1.3460652828   -0.4231041670    2.4435656071
H    -3.0244064331    2.8153817654    0.1331647784
H    -1.5470113754    3.7272922993    0.4214421213
H    -1.6166387796    2.7048304081   -1.0498067141
34

O    -0.2271298319    0.4925742149   -1.7451789379
S    -1.0935666561    0.7154537439   -0.1266793609
C    -1.7227101326   -0.8112023473    0.2426727563
C    -3.2527019978   -0.8646950722    0.3745093644
C    -1.2241615057   -1.4453136921    1.5268969536
C    -1.4318062067   -1.8185960054   -0.8791919947
N    -0.8004954457    1.8443655968    0.6680880785
I     0.3610180318    0.6971293688    0.6819060445
C     2.3394019604    0.2554913163    0.3064336181
C     2.8349587917   -0.9965774417   -0.0151227405
F     1.9646992683   -2.0071074963   -0.0900923535
C     4.1723604202   -1.2253980637   -0.2550622821
F     4.6308732033   -2.4793264866   -0.5716090202
C     5.0888128281   -0.1955754161   -0.1829716414
F     6.4141044617   -0.3621845245   -0.4087573290
C     4.6241693497    1.0594443083    0.1346810460
F     5.5266399384    2.0840311050    0.2077447027
C     3.2853419781    1.2853060961    0.3742369711
F     2.8767538071    2.5486569405    0.6854028106
N    -2.2746400833    1.2926928997   -0.9257809520
C    -3.0207638741    2.4809296131   -1.0638424158
H    -3.6475493908   -0.2359247804   -0.4271426499
H    -3.5261330605   -0.5032115579    1.3879183531
H    -3.5487678051   -1.9299507141    0.2885848582
H    -0.3217460513   -2.0579485893    1.3435550928
H    -1.9752216339   -2.0821640491    2.0283281803
H    -0.8989678025   -0.6417189837    2.2492363453
H    -1.4813891649   -2.8351275921   -0.4372027218
H    -2.2344968319   -1.7471866608   -1.6347470284
H    -0.4245857894   -1.6755586863   -1.3019945621
H    -1.1268519163    2.7947394848    0.9563384056
H    -3.4675152302    2.4658932686   -2.0992829800
H    -3.9333560467    2.4776399136   -0.4023162425
H    -2.4845778942    3.4204199314   -0.8895580769
34

O    -0.0785379857    1.1148962975   -1.4225190878
S    -1.0250128508    0.6300682425   -0.0209843554
C    -2.1332445145   -0.5592069030   -0.5074982643
C    -2.4120504856   -1.4634351730    0.6812860370
C    -1.5247731209   -1.4874812365   -1.5674092770
C    -3.4421968460   -0.1105605289   -1.0568988323
N    -0.6354935169    0.9449521303    1.3531507254
I     0.2216226757   -0.2344130725    0.5957390666
C     2.3084578514   -0.4035385251    0.3186187446
C     2.9185416698   -1.5095133781    0.8898649216
F     2.1537690163   -2.4139544964    1.5883172750
C     4.2895507812   -1.6924092770    0.7521281838
F     4.8927440643   -2.7599148750    1.3008737564
C     5.0165815353   -0.7550496459    0.0405400731
F     6.3518605232   -0.8879577518   -0.1215170845
C     4.4042286873    0.3253957033   -0.5145143270
F     5.0869026184    1.2613931894   -1.2171146870
C     3.0361459255    0.5296394229   -0.3904967308
F     2.4205129147    1.5869321823   -0.9303593040
N    -1.9013712406    1.9377933741   -0.2077039480
C    -1.5386421680    3.3247647285   -0.2312007695
H    -3.3484709263   -1.1224666834    1.2035146952
H    -1.6119352579   -1.4388394356    1.4271299839
H    -2.6406660080   -2.5098605156    0.3519919515
H    -1.3390029669   -0.8810863495   -2.4528708458
H    -2.3286402225   -2.2338671684   -1.8093271255
H    -0.6487504244   -1.9916127920   -1.1411628723
H    -3.5840547085   -0.3168936968   -2.1336362362
H    -4.3251118660   -0.5315777659   -0.5099657178
H    -3.5260889530    0.9915275574   -0.9310209751
H    -0.6993390918    1.6148155928    2.1519501209
H    -0.7059488893    3.5627079010   -0.9152146578
H    -2.4372498989    3.9189889431   -0.4326570034
H    -1.2143362761    3.5597639084    0.8190577626
34

O    -1.9868540764   -1.1996580362    1.8259658813
S    -0.9373871684   -0.0525921732    0.5509304404
C    -2.0940344334    1.2046431303    0.3443454802
C    -1.3554701805    2.5374951363    0.3783553243
C    -3.1554632187    1.2404263020    1.4165917635
C    -2.8229649067    1.1557390690   -0.9843009710
N    -0.3633441627    0.4962864220    1.8967026472
I     0.6420619488   -0.1223745048    0.7998327613
C     2.4459111691   -0.6070720553   -0.0060111070
C     3.0139095783    0.1509622931   -1.0358110666
F     2.3150875568    1.2276951075   -1.4811892509
C     4.2319660187   -0.1637980342   -1.5906527042
F     4.6847600937    0.6414436102   -2.5828363895
C     4.9273157120   -1.2601037025   -1.1262637377
F     6.1268992424   -1.5300945044   -1.7067834139
C     4.4043850899   -2.0379359722   -0.1100441441
F     5.1358790398   -3.0933644772    0.2950854599
C     3.1746201515   -1.7122534513    0.4434017539
F     2.7231879234   -2.5109972954    1.4291236401
N    -1.2356729507   -0.9628462195   -0.4267581999
C    -1.5252948999   -2.3234660625   -0.7807860374
H    -1.9047489166    3.2974402905    0.9869497418
H    -1.1432299614    2.8896436691   -0.6533259153
H    -0.3535831273    2.4399278164    0.8647968173
H    -3.9385690689    0.4835818112    1.2319035530
H    -3.6389112473    2.2547502518    1.3668110371
H    -2.7898809910    1.1268789768    2.4367437363
H    -3.4864485264    0.2989261150   -1.0966188908
H    -3.3845243454    2.0854525566   -1.1088051796
H    -2.0314223766    1.1292972565   -1.7575519085
H    -0.7625296116    1.0018954277    2.6845920086
H    -2.6353466511   -2.4462339878   -0.9470265508
H    -0.9746302962   -2.6875789165   -1.6668618917
H    -1.3056724072   -2.9521155357    0.1094946936
34

O    -2.4148268700    0.4973681867    2.1911005974
S    -1.1584627628    0.0575659461    1.0262745619
C    -1.8492109776   -0.7291884422   -0.2812236249
C    -1.1035581827   -1.9803239107   -0.7493291497
C    -2.0714659691    0.0936590508   -1.5354554653
C    -3.2369480133   -1.2517187595    0.1196783558
N    -0.8069798350   -1.1716332436    1.8553631306
I     0.4653107822   -0.1938697994    1.7252329588
C     2.1673173904    0.1474421322    0.6247904897
C     2.8819820881   -0.9471126199    0.1176340953
F     2.4211459160   -2.2073910236    0.3730757535
C     4.0206494331   -0.8069686294   -0.6217889786
F     4.6519951820   -1.9359475374   -1.0757308006
C     4.5316653252    0.4369175732   -0.9106150270
F     5.6578087807    0.5453925133   -1.6430202723
C     3.8480515480    1.5337107182   -0.4236777127
F     4.3001370430    2.7856357098   -0.6736859083
C     2.6966586113    1.3947280645    0.3241089284
F     2.0344240665    2.4726984501    0.7963811755
N    -0.9138939977    1.3742491007    0.5457322598
C    -1.1546066999    2.7250392437    0.8799129725
H    -1.4472060204   -2.2307033539   -1.7894554138
H    -1.3890841007   -2.8483154774   -0.1182166338
H    -0.0157269947   -1.8120597601   -0.7201617956
H    -2.5895528793   -0.5236011147   -2.2700912952
H    -1.1062400341    0.4108032286   -1.9974064827
H    -2.6668155193    1.0146971941   -1.3332091570
H    -3.0750677586   -2.2316541672    0.6313698292
H    -3.7492899895   -0.5313522220    0.7766034603
H    -3.7930014133   -1.4596194029   -0.7993623018
H    -1.4198646545   -1.9676616192    2.0775270462
H    -0.5409960151    3.3581421375    0.2356202006
H    -2.2210581303    3.0346579552    0.6790147424
H    -0.9532900453    2.9464135170    1.9630094767
34

O    -1.9377264977    1.8029719591    1.3128925562
S    -0.9806839228    0.2607984543    0.5087013245
C    -2.2560241222   -0.7998843789    0.2713594735
C    -3.6064038277   -0.3086914420    0.7816272974
C    -2.0025815964   -2.1299200058    0.9588116407
C    -2.4541358948   -1.1313322783   -1.1954737902
N    -0.6478384733   -0.0152714206    1.9523078203
I     0.5942587256    0.1681907177    0.9533970952
C     2.5016646385    0.2245718241    0.2764302492
C     3.5899555683    0.1631946862    1.1520930529
F     3.3772220612    0.0621458590    2.5059454441
C     4.8864736557    0.1998225898    0.7153413892
F     5.9121727943    0.1374578029    1.6012501717
C     5.1720156670    0.3001396954   -0.6249097586
F     6.4571447372    0.3375593126   -1.0729604959
C     4.1241259575    0.3621544540   -1.5074120760
F     4.4459199905    0.4613627493   -2.8305714130
C     2.8134117126    0.3254699707   -1.0704733133
F     1.8035937548    0.3909956515   -1.9983903170
N    -0.9099725485    1.0285882950   -0.7042050958
C    -1.0675703287    2.2510228157   -1.3912426233
H    -4.0177755356    0.5089490414    0.1692454666
H    -3.5004258156   -0.0267625302    1.8447651863
H    -4.3081417084   -1.1656061411    0.7139076591
H    -0.9101005197   -2.2319839001    1.1894861460
H    -2.3510217667   -2.9970850945    0.3611116409
H    -2.5001869202   -2.1441249847    1.9616192579
H    -2.7146201134   -2.2034912109   -1.3600701094
H    -3.2751467228   -0.5022528768   -1.6334162951
H    -1.5098745823   -0.8637110591   -1.7493611574
H    -1.2188150883   -0.3431643844    2.7249093056
H    -1.7670986652    2.1275205612   -2.2696483135
H    -1.5893334150    3.0353949070   -0.7681779265
H    -0.1524817050    2.7149703503   -1.7788892984
